$-------------------------------------------------------------------
$   		              C-Ta-Hf.TDB1                           $
$   	                       Panyafei                            $
$------------------------------------------------------------------- 
 TEMP_LIM 298.15 6000 !
 ELEMENT /-   ELECTRON_GAS              0.0000E+00  0.0000E+00  0.0000E+00!
 ELEMENT VA   VACUUM                    0.0000E+00  0.0000E+00  0.0000E+00!
 ELEMENT C    GRAPHITE                  1.2011E+01  1.0540E+03  5.7423E+00!
 ELEMENT HF   HCP_A3                    1.7849E+02  5.8450E+03  4.3560E+01!
 ELEMENT TA   BCC_A2                    1.8095E+02  5.6819E+03  4.1472E+01 !
$*****************************************************************************
$
$*****************************************************************************
$                              -------------------
$                               (III) Unary data
$                              -------------------
$
$  Carbon (GHSERCC FOR Graphite)
$
FUNCTION GHSERCC    2.98150E+02  -17368.441+170.73*T-24.3*T*LN(T)
     -4.723E-04*T**2+2562600*T**(-1)-2.643E+08*T**(-2)+1.2E+10*T**(-3);   
                                                        6.00000E+03   N REF0 !
FUNCTION GLIQCC     2.98150E+02  +117369-24.63*T+GHSERCC#;   
                                                        6.00000E+03   N REF0 !
FUNCTION GDIACC     2.98150E+02  -16359.441+175.61*T-24.31*T*LN(T)
     -4.723E-04*T**2+2698000*T**(-1)-2.61E+08*T**(-2)
     +1.11E+10*T**(-3);                                 6.00000E+03   N REF0 !
$-----------------------------------------------------------------------------
$
$ Hahnium (GHSERHF for HCP_A3)
$
FUNCTION GHSERHF    2.98150E+02  -6987.297+110.744026*T-22.7075*T*LN(T)
     -.004146145*T**2-4.77E-10*T**3-22590*T**(-1);  2.50600E+03  Y
      -1446776.33+6193.60999*T-787.536383*T*LN(T)+.1735215*T**2
     -7.575759E-06*T**3+5.01742495E+08*T**(-1);  6.00000E+03  N !
FUNCTION GBCCHF     2.98150E+02  +5370.703+103.836026*T-22.8995*T*LN(T)
     -.004206605*T**2+8.71923E-07*T**3-22590*T**(-1)-1.446E-10*T**4;  
     2.50600E+03  Y
      +1912456.77-8624.20573*T+1087.61412*T*LN(T)-.286857065*T**2
     +1.3427829E-05*T**3-6.10085091E+08*T**(-1);  6.00000E+03  N !
FUNCTION GFCCHF     2.98150E+02  +10000-2.2*T+GHSERHF#;   6.00000E+03   N !
FUNCTION GLIQHF     2.98150E+02  +20414.959+99.790933*T
     -22.7075*T*LN(T)-.004146145*T**2-4.77E-10*T**3-22590*T**(-1);  
                                           1.00000E+03   Y
     +49731.499-149.91739*T+12.116812*T*LN(T)-.021262021*T**2
     +1.376466E-06*T**3-4449699*T**(-1);   2.50600E+03  Y
     -4247.217+265.470523*T-44*T*LN(T);    6.00000E+03  N REF0 !
$*****************************************************************************
$ -------------------------  TA  --------------------------
 FUNCTION GHSERTA    2.98150E+02  -7285.889+119.139857*T-23.7592624*T*LN(T)
     -.002623033*T**2+1.70109E-07*T**3-3293*T**(-1);  1.30000E+03  Y
      -22389.955+243.88676*T-41.137088*T*LN(T)+.006167572*T**2
     -6.55136E-07*T**3+2429586*T**(-1);  2.50000E+03  Y
      +229382.886-722.59722*T+78.5244752*T*LN(T)-.017983376*T**2
     +1.95033E-07*T**3-93813648*T**(-1);  3.29000E+03  Y
      -1042384.01+2985.49125*T-362.159132*T*LN(T)+.043117795*T**2
     -1.055148E-06*T**3+5.54714342E+08*T**(-1);  6.00000E+03  N !

 FUNCTION GLIQTA     2.98150E+02  +21875.086+111.561128*T-23.7592624*T*LN(T)
     -.002623033*T**2+1.70109E-07*T**3-3293*T**(-1);  1.00000E+03  Y
      +43884.339-61.981795*T+.0279523*T*LN(T)-.012330066*T**2
     +6.14599E-07*T**3-3523338*T**(-1);  3.29000E+03  Y
      -6314.543+258.110873*T-41.84*T*LN(T);  6.00000E+03  N !
 FUNCTION GFCCTA     2.98150E+02  +GHSERTA#+16000+1.7*T;   6.00000E+03   N !

 FUNCTION GHCPTA     2.98150E+02  +GHSERTA#+12000+2.4*T;   6.00000E+03   N !
$
$
 TYPE_DEFINITION % SEQ *!
 DEFINE_SYSTEM_DEFAULT ELEMENT 2 !
 DEFAULT_COMMAND DEF_SYS_ELEMENT VA /- !
$
$*****************************************************************************
$                              -----------------------
$                               (IV) Phase description
$                              -----------------------
$
$----------------Phase LQIQUID---------------
$
 PHASE LIQUID  %  1  1.0  !
 CONSTITUENT LIQUID  :C,HF,TA:  !

 PARAMETER G(LIQUID,C;0)  2.98150E+02  +GLIQCC;      6.00000E+03   N !

 PARAMETER G(LIQUID,HF;0)  2.98150E+02  +GLIQHF;     6.00000E+03   N !
 PARAMETER G(LIQUID,TA;0)  2.98150E+02  +GLIQTA;     6.00000E+03   N !

 PARAMETER G(LIQUID,C,HF;0)  2.98150E+02  -395564+42.9738*T;
                                                     6.00000E+03   N !
 PARAMETER G(LIQUID,C,HF;1)  2.98150E+02  -67417.5;
                                                     6.00000E+03   N !
 PARAMETER G(LIQUID,C,HF;2)  2.98150E+02  +225427-44.5905*T;
                                                     6.00000E+03   N !
 PARAMETER G(LIQUID,C,HF;3)  2.98150E+02  +231368-29.9471*T;
                                                     6.00000E+03   N !
 PARAMETER G(LIQUID,C,TA;0)  2.98150E+02  -173413.25-7.1858292*T;
                                                     6.00000E+03   N !
 PARAMETER G(LIQUID,C,TA;1)  2.98150E+02  23643.159;
                                                     6.00000E+03   N !
 PARAMETER G(LIQUID,HF,TA;0)  298.15   +9844;        6.00000E+03   N !
 PARAMETER G(LIQUID,HF,TA;1)  298.15  -13254;        6.00000E+03   N !
 PARAMETER G(LIQUID,C,HF,TA;0)  298.15  3.98894436E+04;    6.00000E+03   N !
 PARAMETER G(LIQUID,C,HF,TA;1)  298.15  2.53947562E+05;    6.00000E+03   N !
 PARAMETER G(LIQUID,C,HF,TA;2)  298.15  4.82498254E+04;    6.00000E+03   N !
$
$----------------Phase FCC_A1---------------
$
 PHASE FCC_A1  %  2  1.0   1.0  !
 CONSTITUENT FCC_A1  :HF,TA: C,VA:  !
 PARAMETER G(FCC_A1,HF:VA;0)     2.98150E+02    +GFCCHF;
                                                     6.00000E+03  N !
 PARAMETER G(FCC_A1,TA:VA;0)     2.98150E+02    +GFCCTA;
                                                     6.00000E+03  N !
 PARAMETER G(FCC_A1,HF:C;0)      2.98150E+02    -226447+272.916*T
       -45.61482*T*LN(T)-0.00299726*T**2+501495*T**(-1)-958263000*T**(-3); 
                                                     6.00000E+03  N !
 PARAMETER G(FCC_A1,TA:C;0)      2.98150E+02   -163843.55+266.90346*T
       -44.957558*T*LN(T)-.0036198014*T**2+594677.55*T**(-1)
       -2.3106742E+09*T**(-3)+1.1923702E+13*T**(-5)-3.5155676E+16*T**(-7);
                                                       6.00000E+03   N !
 PARAMETER G(FCC_A1,HF:C,VA;0)   2.98150E+02    -102413+27.9760*T;
                                                        6.00000E+03  N !
 PARAMETER G(FCC_A1,HF:C,VA;1)   2.98150E+02    -151822+38.2048*T;
                                                        6.00000E+03  N !
 PARAMETER G(FCC_A1,TA:C,VA;0)   2.98150E+02    -60408.461+4.172556*T;
                                                        6.00000E+03  N !
 PARAMETER G(FCC_A1,HF,TA:C;0)   2.98150E+02  1.48014551E+04+3.23907716*T;
                                                        6.00000E+03  N !
 PARAMETER G(FCC_A1,HF,TA:C;1)   2.98150E+02   2.06458000E+03;
                                                        6.00000E+03  N !
 PARAMETER G(FCC_A1,HF,TA:C;2)   2.98150E+02 -2.13804514E+04+3.81547117*T;
                                                        6.00000E+03  N !
 PARAMETER G(FCC_A1,HF,TA:C,VA;0)   2.98150E+02    6.16512751E+04
 -1.38974177E+01*T;
                                                        6.00000E+03  N !
 PARAMETER G(FCC_A1,HF,TA:C,VA;1)   2.98150E+02    -6.19128691E+05
 +1.84824981E+02*T;
                                                        6.00000E+03  N !
 PARAMETER G(FCC_A1,HF,TA:C,VA;2)   2.98150E+02    -2.64668247E+04
 +8.06629930E+00*T;
                                                        6.00000E+03  N !

$----------------Phase BCC_A2---------------
$
 PHASE BCC_A2  %  2  1.0   3  !
 CONSTITUENT BCC_A2  :HF,TA: C,VA:  !
 PARAMETER G(BCC_A2,HF:VA;0)     2.98150E+02    +GBCCHF;
                                                     6.00000E+03  N !
 PARAMETER G(BCC_A2,TA:VA;0)     2.98150E+02    +GHSERTA;
                                                     6.00000E+03  N !
 PARAMETER G(BCC_A2,HF:C;0)     2.98150E+02    -75417.6+584.036*T
         -90.8379*T*LN(T)-0.003853240*T**2+2223284*T**(-1); 
                                                     6.00000E+03  N !
 PARAMETER G(BCC_A2,TA:C;0)     2.98150E+02     +601379.32-61.123315*T
         +GHSERTA#+3*GHSERCC#;
                                                     6.00000E+03  N !
 PARAMETER G(BCC_A2,HF:C,VA;0)   2.98150E+02    -435839;
                                                     6.00000E+03  N !
 
 PARAMETER G(BCC_A2,TA:C,VA;0)   2.98150E+02    -749073.01;
                                                     6.00000E+03  N !
 
 PARAMETER G(BCC_A2,HF,TA:VA;0)  298.15  +22945.8;    6000 N !
 PARAMETER G(BCC_A2,HF,TA:VA;1)  298.15  -4295.3;     6000 N !
 PARAMETER G(BCC_A2,HF,TA:VA;2)  298.15  +947.8;      6000 N !
 PARAMETER G(BCC_A2,HF,TA:C;0)   2.98150E+02    +3.0E+05;
                                                        6.00000E+03  N !
$
$----------------Phase HCP_A3---------------
$
 PHASE HCP_A3  %  2  1.0   0.5  !
 CONSTITUENT HCP_A3  :HF,TA: C,VA:  !
 PARAMETER G(HCP_A3,HF:VA;0)     2.98150E+02    +GHSERHF;
                                                     6.00000E+03  N !
 PARAMETER G(HCP_A3,TA:VA;0)     2.98150E+02    +GHCPTA;
                                                     6.00000E+03  N !
 PARAMETER G(HCP_A3,HF:C;0)      2.98150E+02    -51407.9+192.576*T
 -34.0640*T*LN(T)-0.003139792*T**2+176580*T**(-1);   6.00000E+03  N !
 PARAMETER G(HCP_A3,TA:C;0)      2.98150E+02    -107522.86+142.26601*T
  -26.879883*T*LN(T)-.0057393884*T**2;               6.00000E+03  N !
 PARAMETER G(HCP_A3,HF:C,VA;0)   2.98150E+02    
 -113389.2698-16.91735*T;
                                                        6.00000E+03  N !
 PARAMETER G(HCP_A3,HF:C,VA;1)   2.98150E+02    -124597.4333;
                                                        6.00000E+03  N !
 PARAMETER G(HCP_A3,HF:C,VA;2)   2.98150E+02    -65952.2084;
                                                        6.00000E+03  N !
 PARAMETER G(HCP_A3,TA:C,VA;0)     2.98150E+02  -6917.5538;
                                                        6.00000E+03  N !
 PARAMETER G(HCP_A3,HF,TA:VA;0) 298.15 +22613.8;       6000 N !
 PARAMETER G(HCP_A3,HF,TA:C;0)  298.15 -7.19135220E+04-1.25356797E+01*T;
                                                                  6000 N !
 PARAMETER G(HCP_A3,HF,TA:C;2)  298.15 +1.38062001E+01*T;       
                                                                  6000 N !
 PARAMETER G(HCP_A3,HF,TA:C,VA;0)  298.15   1.82970707E+05+4.82425441E+01*T;
                                                                  6000 N !
 PARAMETER G(HCP_A3,HF,TA:C,VA;1)  298.15  2.10784939E+05;        6000 N !
$$$$$$$$$$$$$$$$$$----TA0.614C0.386-----$$$$$$$$$$$$$$$$$$$$
 PHASE TA4C3  %  2  0.614   0.386  !
 CONSTITUENT TA4C3  :TA: C:  !
 PARAMETER G(TA4C3,TA:C;0)  2.98150E+02 +0.614*GHSERTA+0.386*GHSERCC
 -6.71440556E+04+0.4*T;
                                                             6.00000E+03  N !
$
$----------------Phase Graphite---------------
$
 PHASE GRAPHITE % 1 1.0 !
 CONST GRAPHITE : C : !
 PARAMETER G(GRAPHITE,C;0)         2.98150E+02     +GHSERCC; 6.00000E+03  N !

