
$ Database file written 2012-10- 6
$ modified Hcp, AUSN_GAMMA, and AU10SN_BETAL of AUSN
$ From database: PURE4                   
 ELEMENT /-   ELECTRON_GAS              0.0000E+00  0.0000E+00  0.0000E+00!
 ELEMENT VA   VACUUM                    0.0000E+00  0.0000E+00  0.0000E+00!
 ELEMENT AU   FCC_A1                    1.9697E+02  6.0166E+03  4.7488E+01!
 ELEMENT CE   FCC_A1                    1.4011E+02  0.0000E+00  0.0000E+00!
 ELEMENT SN   BCT_A5                    1.1871E+02  6.3220E+03  5.1195E+01!
 
 
 FUNCTION GHSERAU    2.98150E+02  -6938.856+106.830098*T-22.75455*T*LN(T)
     -.00385924*T**2+3.79625E-07*T**3-25097*T**(-1);  9.29400E+02  Y
      -93586.481+1021.69543*T-155.706745*T*LN(T)+.08756015*T**2
     -1.1518713E-05*T**3+10637210*T**(-1);  1.33733E+03  Y
      +314067.829-2016.37825*T+263.252259*T*LN(T)-.118216828*T**2
     +8.923844E-06*T**3-67999832*T**(-1);  1.73580E+03  Y
      -12133.783+165.272524*T-30.9616*T*LN(T);  3.20000E+03  N !
 FUNCTION GHSERCE    2.98150E+02  -7160.519+84.23022*T-22.3664*T*LN(T)
     -.0067103*T**2-3.20773E-07*T**3-18117*T**(-1);  1.00000E+03  Y
      -79678.506+659.4604*T-101.32248*T*LN(T)+.026046487*T**2
     -1.930297E-06*T**3+11531707*T**(-1);  2.00000E+03  Y
      -14198.639+190.370192*T-37.6978*T*LN(T);  4.00000E+03  N !
 FUNCTION GHSERSN    1.00000E+02  -7958.517+122.765451*T-25.858*T*LN(T)
     +5.1185E-04*T**2-3.192767E-06*T**3+18440*T**(-1);  2.50000E+02  Y
      -5855.135+65.443315*T-15.961*T*LN(T)-.0188702*T**2+3.121167E-06*T**3
     -61960*T**(-1);  5.05080E+02  Y
      +2524.724+4.005269*T-8.2590486*T*LN(T)-.016814429*T**2
     +2.623131E-06*T**3-1081244*T**(-1)-1.2307E+25*T**(-9);  8.00000E+02  Y
      -8256.959+138.99688*T-28.4512*T*LN(T)-1.2307E+25*T**(-9);  3.00000E+03 
      N !
 FUNCTION GDHCPCE    2.98150E+02  -7283.058+84.66322*T-22.3664*T*LN(T)
  -.0067103*T**2-3.20773E-07*T**3-18117*T**(-1);  1.00000E+03  Y
   -79801.045+659.8934*T-101.32248*T*LN(T)+.026046487*T**2-1.930297E-06*T**3
  +11531707*T**(-1);  2.00000E+03  Y
   -14321.178+190.803192*T-37.6978*T*LN(T);  4.00000E+03  N ! 

 FUNCTION UN_ASS 298.15 0; 300 N !
 
 TYPE_DEFINITION % SEQ *!
 DEFINE_SYSTEM_DEFAULT ELEMENT 2 !
 DEFAULT_COMMAND DEF_SYS_ELEMENT VA /- !



$============================================================================
$ LIQUID
$============================================================================

 PHASE LIQUID  %  1  1.0  !
    CONSTITUENT LIQUID  :AU,CE,SN :  !

   PARAMETER G(LIQUID,AU;0)  2.98150E+02  +5613.144+97.444232*T
  -22.75455*T*LN(T)-.00385924*T**2+3.79625E-07*T**3-25097*T**(-1);  
  9.29400E+02  Y
   -81034.481+1012.30956*T-155.706745*T*LN(T)+.08756015*T**2
  -1.1518713E-05*T**3+10637210*T**(-1);  1.33733E+03  Y
   +326619.829-2025.76412*T+263.252259*T*LN(T)-.118216828*T**2
  +8.923844E-06*T**3-67999832*T**(-1);  1.73580E+03  Y
   +418.217+155.886658*T-30.9616*T*LN(T);  3.20000E+03  N REF1 !
   PARAMETER G(LIQUID,CE;0)  2.98150E+02  +4117.865-11.423898*T
  -7.5383948*T*LN(T)-.02936407*T**2+4.827734E-06*T**3-198834*T**(-1);  
  1.00000E+03  Y
   -6730.605+183.023193*T-37.6978*T*LN(T);  4.00000E+03  N REF1 !
   PARAMETER G(LIQUID,SN;0)  1.00000E+02  -855.425+108.677684*T
  -25.858*T*LN(T)+5.1185E-04*T**2-3.192767E-06*T**3+18440*T**(-1)
  +1.47031E-18*T**7;  2.50000E+02  Y
   +1247.957+51.355548*T-15.961*T*LN(T)-.0188702*T**2+3.121167E-06*T**3
  -61960*T**(-1)+1.47031E-18*T**7;  5.05080E+02  Y
   +9496.31-9.809114*T-8.2590486*T*LN(T)-.016814429*T**2+2.623131E-06*T**3
  -1081244*T**(-1);  8.00000E+02  Y
   -1285.372+125.182498*T-28.4512*T*LN(T);  3.00000E+03  N REF1 !

 PARAMETER G(LIQUID,AU,CE;0)  2.98140E+02  -254446.238+6.0002498*T; 
  6.00000E+03  N    REF:0 !

  PARAMETER G(LIQUID,AU,CE;1)  2.98140E+02  -85046.0697; 
  6.00000E+03  N REF:0 !

  PARAMETER G(LIQUID,AU,CE;2)  2.98140E+02  +7400; 
  6.00000E+03  N REF:0 !


 PARAMETER G(LIQUID,AU,SN;0)  2.98140E+02  -48822.94+19.6767*T
  -2.8429*T*LN(T);  3.00000E+03  N REF0 !
 PARAMETER G(LIQUID,AU,SN;1)  2.98140E+02  -17990.36+.7892*T;
  3.00000E+03    N REF0 !
 PARAMETER G(LIQUID,AU,SN;2)  2.98140E+02  -5222.53;
  3.00000E+03  N REF0 !



 PARAMETER G(LIQUID,CE,SN;0)  2.98140E+02  -209129.135+20*T; 
  6.00000E+03  N    REF:0 !

  PARAMETER G(LIQUID,CE,SN;1)  2.98140E+02  +27189.0474; 
  6.00000E+03  N REF:0 !

  PARAMETER G(LIQUID,CE,SN;2)  2.98140E+02  +10000; 
  6.00000E+03  N REF:0 !





$============================================================================
$ BCC
$============================================================================

 TYPE_DEFINITION & GES A_P_D BCC_A2 MAGNETIC  -1.0    4.00000E-01 !
 PHASE BCC_A2  %&  2 1   3 !
    CONSTITUENT BCC_A2  :AU,CE,SN : VA :  !

   PARAMETER G(BCC_A2,AU:VA;0)  2.98150E+02  -2688.856+105.730098*T
  -22.75455*T*LN(T)-.00385924*T**2+3.79625E-07*T**3-25097*T**(-1);  
  9.29400E+02  Y
   -89336.481+1020.59543*T-155.706745*T*LN(T)+.08756015*T**2
  -1.1518713E-05*T**3+10637210*T**(-1);  1.33733E+03  Y
   +318317.829-2017.47825*T+263.252259*T*LN(T)-.118216828*T**2
  +8.923844E-06*T**3-67999832*T**(-1);  1.73580E+03  Y
   -7883.783+164.172524*T-30.9616*T*LN(T);  3.20000E+03  N REF1 !
   PARAMETER G(BCC_A2,CE:VA;0)  2.98150E+02  -1354.69-5.21501*T
  -7.7305867*T*LN(T)-.029098402*T**2+4.784299E-06*T**3-196303*T**(-1);  
  1.00000E+03  Y
   -12101.106+187.449688*T-37.6142*T*LN(T);  1.07200E+03  Y
   -11950.375+186.333811*T-37.4627992*T*LN(T)-5.7145E-05*T**2+2.348E-09*T**3
  -25897*T**(-1);  4.00000E+03  N REF1 !
   PARAMETER G(BCC_A2,SN:VA;0)  1.00000E+02  -3558.517+116.765451*T
  -25.858*T*LN(T)+5.1185E-04*T**2-3.192767E-06*T**3+18440*T**(-1);  
  2.50000E+02  Y
   -1455.135+59.443315*T-15.961*T*LN(T)-.0188702*T**2+3.121167E-06*T**3
  -61960*T**(-1);  5.05080E+02  Y
   +6924.724-1.994731*T-8.2590486*T*LN(T)-.016814429*T**2+2.623131E-06*T**3
  -1081244*T**(-1)-1.2307E+25*T**(-9);  8.00000E+02  Y
   -3856.959+132.99688*T-28.4512*T*LN(T)-1.2307E+25*T**(-9);  3.00000E+03  N 
  REF1 !

 PARAMETER G(BCC_A2,CE,SN:VA;0)  2.98140E+02  -124000-20.057975*T; 
  6.00000E+03  N    REF:0 !




$============================================================================
$ BCT
$============================================================================
 PHASE BCT_A5  %  1  1.0  !
    CONSTITUENT BCT_A5  :SN :  !

   PARAMETER G(BCT_A5,SN;0)  1.00000E+02  +GHSERSN#;  3.00000E+03  N REF1 !


 
$============================================================================
$ DHCP
$============================================================================
 
 PHASE DHCP  %  1  1.0  !
    CONSTITUENT DHCP  :CE :  !

   PARAMETER G(DHCP,CE;0)  2.98150E+02  -7283.058+84.66322*T-22.3664*T*LN(T)
  -.0067103*T**2-3.20773E-07*T**3-18117*T**(-1);  1.00000E+03  Y
   -79801.045+659.8934*T-101.32248*T*LN(T)+.026046487*T**2-1.930297E-06*T**3
  +11531707*T**(-1);  2.00000E+03  Y
   -14321.178+190.803192*T-37.6978*T*LN(T);  4.00000E+03  N REF1 !



$============================================================================
$ DIAMOND
$============================================================================
 PHASE DIAMOND_A4  %  1  1.0  !
    CONSTITUENT DIAMOND_A4  :AU,SN :  !

   PARAMETER G(DIAMOND_A4,SN;0)  1.00000E+02  -9579.608+114.007785*T
  -22.972*T*LN(T)-.00813975*T**2+2.7288E-06*T**3+25615*T**(-1);  2.98150E+02 
   Y
   -9063.001+104.84654*T-21.5750771*T*LN(T)-.008575282*T**2
  +1.784447E-06*T**3-2544*T**(-1);  8.00000E+02  Y
   -10909.351+147.396535*T-28.4512*T*LN(T);  3.00000E+03  N REF1 !

  PARAMETER G(DIAMOND_A4,AU;0)  2.98140E+02  +12552+20.61589*T+GHSERAU#;  
  3.00000E+03  N REF0 !



$============================================================================
$ FCC
$============================================================================
 TYPE_DEFINITION ( GES A_P_D FCC_A1 MAGNETIC  -3.0    2.80000E-01 !
 PHASE FCC_A1  %(  2 1   1 !
    CONSTITUENT FCC_A1  :AU,CE,SN : VA :  !

   PARAMETER G(FCC_A1,AU:VA;0)  2.98150E+02  +GHSERAU#;  3.20000E+03  N REF1 !
   PARAMETER G(FCC_A1,CE:VA;0)  2.98150E+02  +GHSERCE#;  4.00000E+03  N REF1 !
   PARAMETER G(FCC_A1,SN:VA;0)  2.98150E+02  -345.135+56.983315*T
  -15.961*T*LN(T)-.0188702*T**2+3.121167E-06*T**3-61960*T**(-1);  
  5.05080E+02  Y
   +8034.724-4.454731*T-8.2590486*T*LN(T)-.016814429*T**2+2.623131E-06*T**3
  -1081244*T**(-1)-1.2307E+25*T**(-9);  8.00000E+02  Y
   -2746.959+130.53688*T-28.4512*T*LN(T)-1.2307E+25*T**(-9);  3.00000E+03  N 
  REF1 !

  PARAMETER G(FCC_A1,AU,SN:VA;0)  2.98140E+02  -28802.84-5.5753*T;  
  3.00000E+03  N REF0 !
   PARAMETER G(FCC_A1,AU,SN:VA;1)  2.98140E+02  +8815.07-9.7873*T;  
  3.00000E+03  N REF0 !

  PARAMETER G(FCC_A1,CE,SN:VA;0)  2.98150E+02  -1.00000000E+05;
  4.00000E+03  N REF:0 !






$============================================================================
$ HCP
$============================================================================
 TYPE_DEFINITION ) GES A_P_D HCP_A3 MAGNETIC  -3.0    2.80000E-01 !
 PHASE HCP_A3  %)  2 1   .5 !
    CONSTITUENT HCP_A3  :AU,CE,SN : VA :  !

   PARAMETER G(HCP_A3,AU:VA;0)  2.98150E+02  -6698.106+108.430098*T
  -22.75455*T*LN(T)-.00385924*T**2+3.79625E-07*T**3-25097*T**(-1);  
  9.29400E+02  Y
   -93345.731+1023.29543*T-155.706745*T*LN(T)+.08756015*T**2
  -1.1518713E-05*T**3+10637210*T**(-1);  1.33733E+03  Y
   +314308.579-2014.77825*T+263.252259*T*LN(T)-.118216828*T**2
  +8.923844E-06*T**3-67999832*T**(-1);  1.73580E+03  Y
   -11893.033+166.872524*T-30.9616*T*LN(T);  3.20000E+03  N REF1 !
   PARAMETER G(HCP_A3,CE:VA;0)  2.98150E+02  -6860.519+84.23022*T
  -22.3664*T*LN(T)-.0067103*T**2-3.20773E-07*T**3-18117*T**(-1);  
  1.00000E+03  Y
   -79378.506+659.4604*T-101.32248*T*LN(T)+.026046487*T**2-1.930297E-06*T**3
  +11531707*T**(-1);  2.00000E+03  Y
   -13898.639+190.370192*T-37.6978*T*LN(T);  4.00000E+03  N REF1 !
   PARAMETER G(HCP_A3,SN:VA;0)  2.98150E+02  -1955.135+57.797315*T
  -15.961*T*LN(T)-.0188702*T**2+3.121167E-06*T**3-61960*T**(-1);  
  5.05080E+02  Y
   +6424.724-3.640731*T-8.2590486*T*LN(T)-.016814429*T**2+2.623131E-06*T**3
  -1081244*T**(-1)-1.2307E+25*T**(-9);  8.00000E+02  Y
   -4356.959+131.35088*T-28.4512*T*LN(T)-1.2307E+25*T**(-9);  3.00000E+03  N 
  REF1 !


   PARAMETER G(HCP_A3,AU,SN:VA;0)  2.98140E+02  -13163.98256-4.48597*T;  
  3.00000E+03  N REF0 !
   PARAMETER G(HCP_A3,AU,SN:VA;1)  2.98140E+02  -18954.81-23.2973*T;  
  3.00000E+03  N REF0 !


$============================================================================
$ AUSN
$============================================================================
 PHASE AU10SN_BETAL  %  1  1.0  !
    CONSTITUENT AU10SN_BETAL  :AU,SN :  !

   PARAMETER G(AU10SN_BETAL,AU;0)  2.98140E+02  +125+.79*T+GHSERAU#;  
  3.00000E+03  N REF0 !
   PARAMETER G(AU10SN_BETAL,SN;0)  2.98140E+02  +GHSERSN#+3804-3.46*T;  
  3.00000E+03  N REF0 !


  PARAMETER G(AU10SN_BETAL,AU,SN;0)  2.98140E+02  -13546.6569-4.710696*T;  
  3.00000E+03  N REF0 !
   PARAMETER G(AU10SN_BETAL,AU,SN;1)  2.98140E+02  -14193.13-22.3922*T;  
  3.00000E+03  N REF0 !






 PHASE AUSN2  %  2 .33333   .66667 !
    CONSTITUENT AUSN2  :AU : SN :  !

   PARAMETER G(AUSN2,AU:SN;0)  2.98140E+02  +.33333*GHSERAU#+.66667*GHSERSN#
  -14296.5524+5.4538*T;  3.00000E+03  N REF0 !


 PHASE AUSN4_ETAL  %  2 .2   .8 !
    CONSTITUENT AUSN4_ETAL  :AU : SN :  !

   PARAMETER G(AUSN4_ETAL,AU:SN;0)  2.98140E+02  +.2*GHSERAU#+.8*GHSERSN#
  -7790.2575+0.8355*T;  3.00000E+03  N REF0 !


  PHASE AUSN  %  3 1   1   1 !
    CONSTITUENT AUSN  :SN : SN,VA : AU :  !

 PARAMETER G(AUSN,SN:VA:AU;0)  2.98140E+02  -31490+4.34391*T
  +GHSERAU#+GHSERSN#;  3.00000E+03  N REF:0 !

 PARAMETER G(AUSN,SN:SN:AU;0)  2.98140E+02  -1000+.5*T
  +2*GHSERAU#+GHSERSN#;  3.00000E+03  N REF:0 !

 PARAMETER G(AUSN,SN:SN,VA:AU;0)  2.98150E+02  -20000+T;
   6.00000E+03   N REF0 !


 PHASE AUSN_GAMMA  %  2 .84   .16 !
    CONSTITUENT AUSN_GAMMA  :AU : SN :  !

   PARAMETER G(AUSN_GAMMA,AU:SN;0)  2.98140E+02  +.84*GHSERAU#+.16*GHSERSN#
  -4036.7822-3.36475*T;  3.00000E+03  N REF0 !





$============================================================================
$ AUCE
$============================================================================
 PHASE AUCE2  %  2 0.3333 0.6667  !
    CONSTITUENT AUCE2  :AU : CE :  !
   PARAMETER G(AUCE2,AU:CE;0)  2.98150E+02    
   -59392.7618+7.3464222*T+0.3333*GHSERAU#+0.6667*GHSERCE#;
   6.00000E+03   N REF:0 !

 PHASE AUCE_BETA  %  2 0.5 0.5  !
    CONSTITUENT AUCE_BETA  :AU,SN : CE :  !
   PARAMETER G(AUCE_BETA,AU:CE;0)  2.98150E+02    
 -75701.3423+0.8103084*T+0.5*GHSERAU#+0.5*GHSERCE#;   
  6.00000E+03   N REF:0 !

   PARAMETER G(AUCE_BETA,SN:CE;0)  2.98150E+02    
 +133560-1149.5*T+141.3834*T*LN(T)+0.5*GHSERSN#+0.5*GHSERCE#;   
  6.00000E+03   N REF:0 !

   PARAMETER G(AUCE_BETA,AU,SN:CE;0)  2.98150E+02    
 +111540-1054.3*T+130.6928*T*LN(T);   
  6.00000E+03   N REF:0 !



 PHASE AUCE_ALPHA  %  2 0.5 0.5  !
    CONSTITUENT AUCE_ALPHA  :AU : CE :  !
   PARAMETER G(AUCE_ALPHA,AU:CE;0)  2.98150E+02    
  -76017.6953+1.2303334*T+0.5*GHSERAU#+0.5*GHSERCE#;   
  6.00000E+03   N REF:0 !


 PHASE AU2CE  %  2 0.6667 0.3333  !
    CONSTITUENT AU2CE  :AU,SN : CE :  !
   PARAMETER G(AU2CE,AU:CE;0)  2.98150E+02    
 -70000+0.28*T+0.6667*GHSERAU#+0.3333*GHSERCE#;   
  6.00000E+03   N REF:0 !

   PARAMETER G(AU2CE,SN:CE;0)  2.98150E+02    
  -24686.6788-410.7384*T+58.1188*T*LN(T)
  +0.6667*GHSERSN#+0.3333*GHSERCE#;   6.00000E+03   N REF:0 !

   PARAMETER G(AU2CE,AU,SN:CE;0)  2.98150E+02    
 -38862.1163-548.619*T+74.2041*T*LN(T);
    6.00000E+03   N REF:0 !



 PHASE AU51CE14  %  2 0.7846 0.2154  !
    CONSTITUENT AU51CE14  :AU,SN : CE :  !
   PARAMETER G(AU51CE14,AU:CE;0)  2.98150E+02    
 -57709.608+0.6667539*T+0.7846*GHSERAU#+0.2154*GHSERCE#;   
  6.00000E+03   N REF:0 !
   PARAMETER G(AU51CE14,SN:CE;0)  2.98150E+02    
 -35503.995+10.7278*T+0.7846*GHSERSN#+0.2154*GHSERCE#;   
  6.00000E+03   N REF:0 !

   PARAMETER G(AU51CE14,AU,SN:CE;0)  2.98150E+02    
 -66675.7984+7.3566*T;     6.00000E+03   N REF:0 !



  PHASE AU6CE  %  2 0.8571 0.1429  !
    CONSTITUENT AU6CE  :AU : CE :  !
   PARAMETER G(AU6CE,AU:CE;0)  2.98150E+02    
 -41593.6344+2.6581666*T+0.8571*GHSERAU#+0.1429*GHSERCE#;   
  6.00000E+03   N REF:0 !


 PHASE AU4CE3  %  2 0.5714 0.4286  !
    CONSTITUENT AU4CE3  :AU : CE :  !
   PARAMETER G(AU4CE3,AU:CE;0)  2.98150E+02    
 -73820+1.145*T+0.5714*GHSERAU#+0.4286*GHSERCE#;   
  6.00000E+03   N REF:0 !








$============================================================================
$ CESN
$============================================================================
PHASE CE3SN  %  2 0.75 0.25  !
    CONSTITUENT CE3SN  :CE : SN :  !
   PARAMETER G(CE3SN,CE:SN;0)  2.98150E+02    
 -53717.004+8.7753*T+0.25*GHSERSN#+0.75*GHSERCE#;   
  6.00000E+03   N REF:0 !

 PHASE CE5SN3  %  2 0.625 0.375  !
    CONSTITUENT CE5SN3  :CE : AU,SN% :  !
   PARAMETER G(CE5SN3,CE:SN;0)  2.98150E+02    
 -70360.3499+6.4692*T+0.375*GHSERSN#+0.625*GHSERCE#;   
  6.00000E+03   N REF:0 !
   PARAMETER G(CE5SN3,CE:AU;0)  2.98150E+02    
 -28100+0.375*GHSERSN#+0.625*GHSERCE#;   
  6.00000E+03   N REF:0 !
   PARAMETER G(CE5SN3,CE:AU,SN;0)  2.98150E+02    
 -28000;   
  6.00000E+03   N REF:0 !







 PHASE CE5SN4  %  2 0.5556 0.4444  !
    CONSTITUENT CE5SN4  :CE : SN,AU :  !
   PARAMETER G(CE5SN4,CE:SN;0)  2.98150E+02    
 -73463.2507+5.7042*T+0.4444*GHSERSN#+0.5556*GHSERCE#;   
  6.00000E+03   N REF:0 !
   PARAMETER G(CE5SN4,CE:AU;0)  2.98150E+02    
 -31824.9668+1.0201*T+0.4444*GHSERAU#+0.5556*GHSERCE#;   
  6.00000E+03   N REF:0 !

   PARAMETER G(CE5SN4,CE:SN,AU;0)  2.98150E+02    
 -64696.3068+13.1841*T;   
  6.00000E+03   N REF:0 !


 PHASE CE11SN10  %  2 0.5238 0.4762  !
    CONSTITUENT CE11SN10  :CE : SN :  !
   PARAMETER G(CE11SN10,CE:SN;0)  2.98150E+02    
 -72205.5443+4.9042*T+0.4762*GHSERSN#+0.5238*GHSERCE#;   
  6.00000E+03   N REF:0 !





 PHASE CE3SN5  %  2 0.375 0.625  !
    CONSTITUENT CE3SN5  :CE : AU,SN :  !
   PARAMETER G(CE3SN5,CE:SN;0)  2.98150E+02    
 -65379.7835+2.9979531*T+0.375*GHSERCE#+0.625*GHSERSN#;   
  6.00000E+03   N REF:0 !

   PARAMETER G(CE3SN5,CE:AU;0)  2.98150E+02    
 -63679.515+9.7461*T+0.375*GHSERCE#+0.625*GHSERAU#;   
  6.00000E+03   N REF:0 !
   PARAMETER G(CE3SN5,CE:AU,SN;0)  2.98150E+02    
 -86374.8724+42.2042*T;     6.00000E+03   N REF:0 !



 PHASE CE3SN7  %  2 0.3 0.7  !
    CONSTITUENT CE3SN7  :CE : SN :  !
   PARAMETER G(CE3SN7,CE:SN;0)  2.98150E+02    
 -62186.0329+3.8708983*T+0.3*GHSERCE#+0.7*GHSERSN#;   
  6.00000E+03   N REF:0 !





 PHASE CE2SN5  %  2 0.2857 0.7143  !
    CONSTITUENT CE2SN5  :CE : SN :  !
   PARAMETER G(CE2SN5,CE:SN;0)  2.98150E+02    
 -61297.1171+3.8566554*T+0.2857*GHSERCE#+0.7143*GHSERSN#;   
  6.00000E+03   N REF:0 !

 



 PHASE CESN3  %  2 0.25 0.75  !
    CONSTITUENT CESN3  :CE : AU,SN :  !
   PARAMETER G(CESN3,CE:SN;0)  2.98150E+02    
 -57620.424+3.1225*T+0.75*GHSERSN#+0.25*GHSERCE#;   
  6.00000E+03   N REF:0 !

   PARAMETER G(CESN3,CE:AU;0)  2.98150E+02    
 -54283.4187+20.8409*T+0.75*GHSERAU#+0.25*GHSERCE#;   
  6.00000E+03   N REF:0 !
   PARAMETER G(CESN3,CE:AU,SN;0)  2.98150E+02    
 -87410.7143+27.381*T;     6.00000E+03   N REF:0 !






$============================================================================
$ TERNARY
$============================================================================

 PHASE AU5CESN_ONE  %  2 .15  .85  !
    CONSTITUENT AU5CESN_ONE  :CE : AU,SN :  !
   PARAMETER G(AU5CESN_ONE,CE:AU;0)  2.98150E+02    
 -40800+2.01*T+.85*GHSERAU#+.15*GHSERCE#;   
  6.00000E+03   N REF:0 !
   PARAMETER G(AU5CESN_ONE,CE:SN;0)  2.98150E+02    
 -13455+2.06*T+.15*GHSERCE#+.85*GHSERSN#;   
  6.00000E+03   N REF:0 !

   PARAMETER G(AU5CESN_ONE,CE:AU,SN;0)  2.98150E+02    
 -85000+3.06*T;    6.00000E+03   N REF:0 !



 PHASE AU4CE3SN2_TWO  %  3 1  1.34  .66  !
    CONSTITUENT AU4CE3SN2_TWO  :CE : AU : AU,SN :  !
   PARAMETER G(AU4CE3SN2_TWO,CE:AU:SN;0)  2.98150E+02    
 -260000+10.032*T+1.34*GHSERAU#+GHSERCE#+.66*GHSERSN#;   
  6.00000E+03   N REF:0 !

   PARAMETER G(AU4CE3SN2_TWO,CE:AU:AU;0)  2.98150E+02    
 -197900+2*GHSERAU#+GHSERCE#;   
  6.00000E+03   N REF:0 !
   PARAMETER G(AU4CE3SN2_TWO,CE:AU:AU,SN;0)  2.98150E+02    
  -16000;   6.00000E+03   N REF:0 !



 PHASE AU2CESN_THREE  %  3 .25  .5  .25  !
    CONSTITUENT AU2CESN_THREE  :CE : AU : AU,SN :  !
   PARAMETER G(AU2CESN_THREE,CE:AU:SN;0)  2.98150E+02    
 -78400+3.08*T+.5*GHSERAU#+.25*GHSERCE#+.25*GHSERSN#;   
  6.00000E+03   N REF:0 !
   PARAMETER G(AU2CESN_THREE,CE:AU:AU;0)  2.98150E+02    
 -29000+2.02*T+.75*GHSERAU#+.25*GHSERCE#;   
  6.00000E+03   N REF:0 !

   PARAMETER G(AU2CESN_THREE,CE:AU:AU,SN;0)  2.98150E+02    
 -36900+2.02*T;   6.00000E+03   N REF:0 !





  PHASE AUCESN_FOUR  %  3 1  1  1  !
    CONSTITUENT AUCESN_FOUR  :AU : CE : SN :  !
   PARAMETER G(AUCESN_FOUR,AU:CE:SN;0)  2.98150E+02    
 -259400+8.032*T+GHSERAU#+GHSERCE#+GHSERSN#;   
  6.00000E+03   N REF:0 !




  PHASE AUCE5SN3_FIVE  %  3 1  5  3  !
    CONSTITUENT AUCE5SN3_FIVE  :AU : CE : SN :  !
   PARAMETER G(AUCE5SN3_FIVE,AU:CE:SN;0)  2.98150E+02    
 -673000+24.9196*T+GHSERAU#+5*GHSERCE#+3*GHSERSN#;   
  6.00000E+03   N REF:0 !


 PHASE AU2CESN2_SIX  %  3 .2  .4  .4  !
    CONSTITUENT AU2CESN2_SIX  :CE : AU,SN : SN :  !
   PARAMETER G(AU2CESN2_SIX,CE:AU:SN;0)  2.98150E+02    
 -71000+4.05*T+.4*GHSERAU#+.2*GHSERCE#+.4*GHSERSN#;   
  6.00000E+03   N REF:0 !

   PARAMETER G(AU2CESN2_SIX,CE:SN:SN;0)  2.98150E+02    
 -12000+2*T+.2*GHSERCE#+.8*GHSERSN#;   
  6.00000E+03   N REF:0 !
   PARAMETER G(AU2CESN2_SIX,CE:AU,SN:SN;0)  2.98150E+02    
 -24000;      6.00000E+03   N REF:0 !


 PHASE AU3CE2SN4_SEVEN  %  3 .222  .334  .444  !
    CONSTITUENT AU3CE2SN4_SEVEN  :CE : AU : AU,SN :  !
   PARAMETER G(AU3CE2SN4_SEVEN,CE:AU:SN;0)  2.98150E+02    
 -71900+4.1275*T+.334*GHSERAU#+.222*GHSERCE#+.444*GHSERSN#;   
  6.00000E+03   N REF:0 !

   PARAMETER G(AU3CE2SN4_SEVEN,CE:AU:AU;0)  2.98150E+02    
 -19000+.5*T+.222*GHSERCE#+.778*GHSERAU#;   
  6.00000E+03   N REF:0 !

   PARAMETER G(AU3CE2SN4_SEVEN,CE:AU:AU,SN;0)  2.98150E+02    
 -48000;     6.00000E+03   N REF:0 !





 LIST_OF_REFERENCES
 NUMBER  SOURCE
   REF1   'PURE4 - SGTE Pure Elements (Unary) Database (Version 4.6), 
         developed by SGTE (Scientific Group Thermodata Europe), 1991-2008, 
         and provided by TCSAB (Jan. 2008). '
  ! 
 
