
$ Database file written 2013- 1-17
$ Ni-Sn from A.Zemanova,"theoretical assessment of the Ni-Sn system"
$  Monatsh Chem 143 (2012)1255-1261
$ Au-Ni from J. Wang, "thermodynamic assessment of the Au-Ni system"
$  CALPHAd, 29(2005)263-268
$ From database: PURE4                   
 ELEMENT /-   ELECTRON_GAS              0.0000E+00  0.0000E+00  0.0000E+00!
 ELEMENT VA   VACUUM                    0.0000E+00  0.0000E+00  0.0000E+00!
 ELEMENT AU   FCC_A1                    1.9697E+02  6.0166E+03  4.7488E+01!
 ELEMENT NI   FCC_A1                    5.8690E+01  4.7870E+03  2.9796E+01!
 ELEMENT SN   BCT_A5                    1.1871E+02  6.3220E+03  5.1195E+01!
 
 
 FUNCTION GHSERAU    2.98150E+02  -6938.856+106.830098*T-22.75455*T*LN(T)
     -.00385924*T**2+3.79625E-07*T**3-25097*T**(-1);  9.29400E+02  Y
      -93586.481+1021.69543*T-155.706745*T*LN(T)+.08756015*T**2
     -1.1518713E-05*T**3+10637210*T**(-1);  1.33733E+03  Y
      +314067.829-2016.37825*T+263.252259*T*LN(T)-.118216828*T**2
     +8.923844E-06*T**3-67999832*T**(-1);  1.73580E+03  Y
      -12133.783+165.272524*T-30.9616*T*LN(T);  3.20000E+03  N !
 FUNCTION GHSERNI    2.98150E+02  -5179.159+117.854*T-22.096*T*LN(T)
     -.0048407*T**2;  1.72800E+03  Y
      -27840.655+279.135*T-43.1*T*LN(T)+1.12754E+31*T**(-9);  3.00000E+03  N 
     !
 FUNCTION GHSERSN    1.00000E+02  -7958.517+122.765451*T-25.858*T*LN(T)
     +5.1185E-04*T**2-3.192767E-06*T**3+18440*T**(-1);  2.50000E+02  Y
      -5855.135+65.443315*T-15.961*T*LN(T)-.0188702*T**2+3.121167E-06*T**3
     -61960*T**(-1);  5.05080E+02  Y
      +2524.724+4.005269*T-8.2590486*T*LN(T)-.016814429*T**2
     +2.623131E-06*T**3-1081244*T**(-1)-1.2307E+25*T**(-9);  8.00000E+02  Y
      -8256.959+138.99688*T-28.4512*T*LN(T)-1.2307E+25*T**(-9);  3.00000E+03 
      N !

 FUNCTION GBCCNI     2.98140E+02  +8715.084-3.556*T+GHSERNI#;  3.00000E+03  
     N !

 FUNCTION GBCCSN     2.98150E+02  +4400-6*T+GHSERSN#;   6.00000E+03   N !
 FUNCTION GHCPNI     2.98140E+02  +1046+1.255*T+GHSERNI#;  3.00000E+03  N !

 FUNCTION GHCPSN     2.98150E+02  -1955.135+57.797315*T
  -15.961*T*LN(T)-.0188702*T**2+3.121167E-06*T**3-61960*T**(-1);  
  5.05080E+02  Y
   +6424.724-3.640731*T-8.2590486*T*LN(T)-.016814429*T**2+2.623131E-06*T**3
  -1081244*T**(-1)-1.2307E+25*T**(-9);  8.00000E+02  Y
   -4356.959+131.35088*T-28.4512*T*LN(T)-1.2307E+25*T**(-9);  3.00000E+03  N !
 FUNCTION UN_ASS 298.15 0; 300 N !
 
 TYPE_DEFINITION % SEQ *!
 DEFINE_SYSTEM_DEFAULT ELEMENT 2 !
 DEFAULT_COMMAND DEF_SYS_ELEMENT VA /- !

$============================================================================
$ LIQUID
$============================================================================
 PHASE LIQUID  %  1  1.0  !
    CONSTITUENT LIQUID  :AU,NI,SN :  !

   PARAMETER G(LIQUID,AU;0)  2.98150E+02  +5613.144+97.444232*T
  -22.75455*T*LN(T)-.00385924*T**2+3.79625E-07*T**3-25097*T**(-1);  
  9.29400E+02  Y
   -81034.481+1012.30956*T-155.706745*T*LN(T)+.08756015*T**2
  -1.1518713E-05*T**3+10637210*T**(-1);  1.33733E+03  Y
   +326619.829-2025.76412*T+263.252259*T*LN(T)-.118216828*T**2
  +8.923844E-06*T**3-67999832*T**(-1);  1.73580E+03  Y
   +418.217+155.886658*T-30.9616*T*LN(T);  3.20000E+03  N REF1 !
   PARAMETER G(LIQUID,NI;0)  2.98150E+02  +11235.527+108.457*T
  -22.096*T*LN(T)-.0048407*T**2-3.82318E-21*T**7;  1.72800E+03  Y
   -9549.775+268.598*T-43.1*T*LN(T);  3.00000E+03  N REF1 !
   PARAMETER G(LIQUID,SN;0)  1.00000E+02  -855.425+108.677684*T
  -25.858*T*LN(T)+5.1185E-04*T**2-3.192767E-06*T**3+18440*T**(-1)
  +1.47031E-18*T**7;  2.50000E+02  Y
   +1247.957+51.355548*T-15.961*T*LN(T)-.0188702*T**2+3.121167E-06*T**3
  -61960*T**(-1)+1.47031E-18*T**7;  5.05080E+02  Y
   +9496.31-9.809114*T-8.2590486*T*LN(T)-.016814429*T**2+2.623131E-06*T**3
  -1081244*T**(-1);  8.00000E+02  Y
   -1285.372+125.182498*T-28.4512*T*LN(T);  3.00000E+03  N REF1 !


 PARAMETER G(LIQUID,AU,SN;0)  2.98140E+02  -48822.94+19.6767*T
  -2.8429*T*LN(T);  3.00000E+03  N REF0 !
 PARAMETER G(LIQUID,AU,SN;1)  2.98140E+02  -17990.36+.7892*T;
  3.00000E+03    N REF0 !
 PARAMETER G(LIQUID,AU,SN;2)  2.98140E+02  -5222.53;
  3.00000E+03  N REF0 !

   PARAMETER G(LIQUID,NI,SN;0)  2.98140E+02  -104602.87+197.8089*T
  -21.6959*T*LN(T);  3.00000E+03  N REF0 !
   PARAMETER G(LIQUID,NI,SN;1)  2.98140E+02  -30772.17+52.5528*T
  -7.56094*T*LN(T);  3.00000E+03  N REF0 !
   PARAMETER G(LIQUID,NI,SN;2)  2.98140E+02  +6582.31;
  3.00000E+03  N REF0 !

  PARAMETER G(LIQUID,AU,NI;0)  2.98150E+02  +9500-5.429*T;
   6.00000E+03   N   REF0 !

   PARAMETER G(LIQUID,AU,NI;1)  2.98150E+02  +1614;
   6.00000E+03   N   REF0 !




$============================================================================
$ BCC
$============================================================================
 TYPE_DEFINITION & GES A_P_D BCC_A2 MAGNETIC  -1.0    4.00000E-01 !
 PHASE BCC_A2  %&  2 1   3 !
    CONSTITUENT BCC_A2  :AU,NI,SN : VA :  !

   PARAMETER G(BCC_A2,AU:VA;0)  2.98150E+02  -2688.856+105.730098*T
  -22.75455*T*LN(T)-.00385924*T**2+3.79625E-07*T**3-25097*T**(-1);  
  9.29400E+02  Y
   -89336.481+1020.59543*T-155.706745*T*LN(T)+.08756015*T**2
  -1.1518713E-05*T**3+10637210*T**(-1);  1.33733E+03  Y
   +318317.829-2017.47825*T+263.252259*T*LN(T)-.118216828*T**2
  +8.923844E-06*T**3-67999832*T**(-1);  1.73580E+03  Y
   -7883.783+164.172524*T-30.9616*T*LN(T);  3.20000E+03  N REF1 !

   PARAMETER G(BCC_A2,NI:VA;0)  2.98150E+02  +3535.925+114.298*T
  -22.096*T*LN(T)-.0048407*T**2;  1.72800E+03  Y
   -19125.571+275.579*T-43.1*T*LN(T)+1.12754E+31*T**(-9);  3.00000E+03  N 
  REF1 !

   PARAMETER TC(BCC_A2,NI:VA;0)  2.98150E+02  575;  3.00000E+03  N REF0 !
   PARAMETER BMAGN(BCC_A2,NI:VA;0)  2.98150E+02  .85;  3.00000E+03  N REF0 !

   PARAMETER G(BCC_A2,SN:VA;0)  1.00000E+02  -3558.517+116.765451*T
  -25.858*T*LN(T)+5.1185E-04*T**2-3.192767E-06*T**3+18440*T**(-1);  
  2.50000E+02  Y
   -1455.135+59.443315*T-15.961*T*LN(T)-.0188702*T**2+3.121167E-06*T**3
  -61960*T**(-1);  5.05080E+02  Y
   +6924.724-1.994731*T-8.2590486*T*LN(T)-.016814429*T**2+2.623131E-06*T**3
  -1081244*T**(-1)-1.2307E+25*T**(-9);  8.00000E+02  Y
   -3856.959+132.99688*T-28.4512*T*LN(T)-1.2307E+25*T**(-9);  3.00000E+03  N 
  REF1 !


   PARAMETER G(BCC_A2,AU,NI:VA;0)  2.98150E+02  +5000;   
  6.00000E+03   N REF:0 !

   PARAMETER G(BCC_A2,NI,SN:VA;0)  2.98150E+02  +2369+43.736*T;   
  6.00000E+03   N REF:0 !
  PARAMETER G(BCC_A2,NI,SN:VA;1)  2.98150E+02  -654762.56+63.272352*T;   
  6.00000E+03   N REF:0 !
  PARAMETER G(BCC_A2,NI,SN:VA;2)  2.98150E+02  +689895.17-94.74087*T;   
  6.00000E+03   N REF:0 !

   PARAMETER G(BCC_A2,AU,NI,SN:VA;0)  2.98150E+02  +85000;   
  6.00000E+03   N REF:0 !


$============================================================================
$ BCT
$============================================================================
 PHASE BCT_A5  %  1  1.0  !
    CONSTITUENT BCT_A5  :NI,SN :  !

   PARAMETER G(BCT_A5,SN;0)  1.00000E+02  +GHSERSN#;  3.00000E+03  N REF1 !
   PARAMETER G(BCT_A5,NI;0)  2.98140E+02  +10023-4.556*T+GHSERNI#;  
  3.00000E+03  N REF0 !
   PARAMETER G(BCT_A5,NI,SN;0)  2.98140E+02  -21500;  3.00000E+03  N REF0 !




$============================================================================
$WITHOUT PARAMETERS
$============================================================================
 PHASE CUB_A13  %  2 1   1 !
    CONSTITUENT CUB_A13  :NI,SN : VA :  !

   PARAMETER G(CUB_A13,NI:VA;0)  2.98150E+02  -3087.159+117.854*T
  -22.096*T*LN(T)-.0048407*T**2;  1.72800E+03  Y
   -25748.655+279.135*T-43.1*T*LN(T)+1.12754E+31*T**(-9);  3.00000E+03  N 
  REF1 !
   PARAMETER G(CUB_A13,SN:VA;0)  1.00000E+02  -5958.517+122.765451*T
  -25.858*T*LN(T)+5.1185E-04*T**2-3.192767E-06*T**3+18440*T**(-1);  
  2.50000E+02  Y
   -3855.135+65.443315*T-15.961*T*LN(T)-.0188702*T**2+3.121167E-06*T**3
  -61960*T**(-1);  5.05080E+02  Y
   +4524.724+4.005269*T-8.2590486*T*LN(T)-.016814429*T**2+2.623131E-06*T**3
  -1081244*T**(-1)-1.2307E+25*T**(-9);  8.00000E+02  Y
   -6256.959+138.99688*T-28.4512*T*LN(T)-1.2307E+25*T**(-9);  3.00000E+03  N 
  REF1 !


 TYPE_DEFINITION ' GES A_P_D CBCC_A12 MAGNETIC  -3.0    2.80000E-01 !
 PHASE CBCC_A12  %'  2 1   1 !
    CONSTITUENT CBCC_A12  :NI,SN : VA :  !

   PARAMETER G(CBCC_A12,NI:VA;0)  2.98150E+02  -1623.159+117.854*T
  -22.096*T*LN(T)-.0048407*T**2;  1.72800E+03  Y
   -24284.655+279.135*T-43.1*T*LN(T)+1.12754E+31*T**(-9);  3.00000E+03  N 
  REF1 !
   PARAMETER G(CBCC_A12,SN:VA;0)  1.00000E+02  -5958.517+122.765451*T
  -25.858*T*LN(T)+5.1185E-04*T**2-3.192767E-06*T**3+18440*T**(-1);  
  2.50000E+02  Y
   -3855.135+65.443315*T-15.961*T*LN(T)-.0188702*T**2+3.121167E-06*T**3
  -61960*T**(-1);  5.05080E+02  Y
   +4524.724+4.005269*T-8.2590486*T*LN(T)-.016814429*T**2+2.623131E-06*T**3
  -1081244*T**(-1)-1.2307E+25*T**(-9);  8.00000E+02  Y
   -6256.959+138.99688*T-28.4512*T*LN(T)-1.2307E+25*T**(-9);  3.00000E+03  N 
  REF1 !

 PHASE DIAMOND_A4  %  1  1.0  !
    CONSTITUENT DIAMOND_A4  :SN :  !

   PARAMETER G(DIAMOND_A4,SN;0)  1.00000E+02  -9579.608+114.007785*T
  -22.972*T*LN(T)-.00813975*T**2+2.7288E-06*T**3+25615*T**(-1);  2.98150E+02 
   Y
   -9063.001+104.84654*T-21.5750771*T*LN(T)-.008575282*T**2
  +1.784447E-06*T**3-2544*T**(-1);  8.00000E+02  Y
   -10909.351+147.396535*T-28.4512*T*LN(T);  3.00000E+03  N REF1 !

 PHASE HCP_ZN  %  2 1   .5 !
    CONSTITUENT HCP_ZN  :SN : VA :  !

   PARAMETER G(HCP_ZN,SN:VA;0)  2.98150E+02  -1950.135+57.797315*T
  -15.961*T*LN(T)-.0188702*T**2+3.121167E-06*T**3-61960*T**(-1);  
  5.05080E+02  Y
   +6429.724-3.640731*T-8.2590486*T*LN(T)-.016814429*T**2+2.623131E-06*T**3
  -1081244*T**(-1)-1.2307E+25*T**(-9);  8.00000E+02  Y
   -4351.959+131.35088*T-28.4512*T*LN(T)-1.2307E+25*T**(-9);  3.00000E+03  N 
  REF1 !


 PHASE RHOMBOHEDRAL_A7  %  1  1.0  !
    CONSTITUENT RHOMBOHEDRAL_A7  :SN :  !

   PARAMETER G(RHOMBOHEDRAL_A7,SN;0)  1.00000E+02  -5923.517+122.765451*T
  -25.858*T*LN(T)+5.1185E-04*T**2-3.192767E-06*T**3+18440*T**(-1);  
  2.50000E+02  Y
   -3820.135+65.443315*T-15.961*T*LN(T)-.0188702*T**2+3.121167E-06*T**3
  -61960*T**(-1);  5.05080E+02  Y
   +4559.724+4.005269*T-8.2590486*T*LN(T)-.016814429*T**2+2.623131E-06*T**3
  -1081244*T**(-1)-1.2307E+25*T**(-9);  8.00000E+02  Y
   -6221.959+138.99688*T-28.4512*T*LN(T)-1.2307E+25*T**(-9);  3.00000E+03  N 
  REF1 !


 PHASE TETRAGONAL_A6  %  1  1.0  !
    CONSTITUENT TETRAGONAL_A6  :SN :  !

   PARAMETER G(TETRAGONAL_A6,SN;0)  2.98150E+02  -468.135+57.181195*T
  -15.961*T*LN(T)-.0188702*T**2+3.121167E-06*T**3-61960*T**(-1);  
  5.05080E+02  Y
   +7911.724-4.256851*T-8.2590486*T*LN(T)-.016814429*T**2+2.623131E-06*T**3
  -1081244*T**(-1)-1.2307E+25*T**(-9);  8.00000E+02  Y
   -2869.959+130.73476*T-28.4512*T*LN(T)-1.2307E+25*T**(-9);  3.00000E+03  N 
  REF1 !


$============================================================================
$ FCC
$============================================================================
 TYPE_DEFINITION ( GES A_P_D FCC_A1 MAGNETIC  -3.0    2.80000E-01 !
 PHASE FCC_A1  %(  2 1   1 !
    CONSTITUENT FCC_A1  :AU,NI,SN : VA :  !

   PARAMETER G(FCC_A1,AU:VA;0)  2.98150E+02  +GHSERAU#;  3.20000E+03  N REF1 !
   PARAMETER G(FCC_A1,NI:VA;0)  2.98150E+02  +GHSERNI#;  3.00000E+03  N REF1 !
   PARAMETER TC(FCC_A1,NI:VA;0)  2.98150E+02  633;  3.00000E+03  N REF0 !
   PARAMETER BMAGN(FCC_A1,NI:VA;0)  2.98150E+02  .52;  3.00000E+03  N REF0 !
   PARAMETER G(FCC_A1,SN:VA;0)  2.98150E+02  -345.135+56.983315*T
  -15.961*T*LN(T)-.0188702*T**2+3.121167E-06*T**3-61960*T**(-1);  
  5.05080E+02  Y
   +8034.724-4.454731*T-8.2590486*T*LN(T)-.016814429*T**2+2.623131E-06*T**3
  -1081244*T**(-1)-1.2307E+25*T**(-9);  8.00000E+02  Y
   -2746.959+130.53688*T-28.4512*T*LN(T)-1.2307E+25*T**(-9);  3.00000E+03  N 
  REF1 !

  PARAMETER G(FCC_A1,AU,SN:VA;0)  2.98140E+02  -28802.84-5.5753*T;  
  3.00000E+03  N REF0 !
   PARAMETER G(FCC_A1,AU,SN:VA;1)  2.98140E+02  +8815.07-9.7873*T;  
  3.00000E+03  N REF0 !



   PARAMETER BMAGN(FCC_A1,NI,SN:VA;0)  2.98150E+02  -6.8002;   6.00000E+03   
  N REF0 !
   PARAMETER BMAGN(FCC_A1,NI,SN:VA;1)  2.98150E+02  4.3689;   6.00000E+03   
  N REF0 !
   PARAMETER G(FCC_A1,NI,SN:VA;0)  2.98140E+02  -69507.35+74.5697727*T
    -8.0319551*T*LN(T);    3.00000E+03  N REF0 !
   PARAMETER G(FCC_A1,NI,SN:VA;1)  2.98140E+02  -12395.19;  
  3.00000E+03  N REF0 !
   PARAMETER TC(FCC_A1,NI,SN:VA;0)  2.98150E+02  -6000;
   6.00000E+03   N  REF0 !
   PARAMETER TC(FCC_A1,NI,SN:VA;1)  2.98150E+02  +3000;
  6.00000E+03   N   REF0 !

   PARAMETER TC(FCC_A1,AU,NI:VA;0)  2.98150E+02  -500;   6.00000E+03   N 
  REF0 !

   PARAMETER G(FCC_A1,AU,NI:VA;0)  2.98150E+02  +28696-11.274*T;
   6.00000E+03   N   REF0 !
   PARAMETER G(FCC_A1,AU,NI:VA;1)  2.98150E+02  -10945+6.154*T;
   6.00000E+03   N   REF0 !
   PARAMETER G(FCC_A1,AU,NI:VA;2)  2.98150E+02  +2519;
   6.00000E+03   N   REF0 !

   



$============================================================================
$ HCP
$============================================================================
 TYPE_DEFINITION ) GES A_P_D HCP_A3 MAGNETIC  -3.0    2.80000E-01 !
 PHASE HCP_A3  %)  2 1   .5 !
    CONSTITUENT HCP_A3  :AU,NI,SN : VA :  !

   PARAMETER G(HCP_A3,AU:VA;0)  2.98150E+02  -6698.106+108.430098*T
  -22.75455*T*LN(T)-.00385924*T**2+3.79625E-07*T**3-25097*T**(-1);  
  9.29400E+02  Y
   -93345.731+1023.29543*T-155.706745*T*LN(T)+.08756015*T**2
  -1.1518713E-05*T**3+10637210*T**(-1);  1.33733E+03  Y
   +314308.579-2014.77825*T+263.252259*T*LN(T)-.118216828*T**2
  +8.923844E-06*T**3-67999832*T**(-1);  1.73580E+03  Y
   -11893.033+166.872524*T-30.9616*T*LN(T);  3.20000E+03  N REF1 !

   PARAMETER G(HCP_A3,NI:VA;0)  2.98150E+02  -4133.159+119.109*T
  -22.096*T*LN(T)-.0048407*T**2;  1.72800E+03  Y
   -26794.655+280.39*T-43.1*T*LN(T)+1.12754E+31*T**(-9);  3.00000E+03  N 
  REF1 !

   PARAMETER G(HCP_A3,SN:VA;0)  2.98150E+02  -1955.135+57.797315*T
  -15.961*T*LN(T)-.0188702*T**2+3.121167E-06*T**3-61960*T**(-1);  
  5.05080E+02  Y
   +6424.724-3.640731*T-8.2590486*T*LN(T)-.016814429*T**2+2.623131E-06*T**3
  -1081244*T**(-1)-1.2307E+25*T**(-9);  8.00000E+02  Y
   -4356.959+131.35088*T-28.4512*T*LN(T)-1.2307E+25*T**(-9);  3.00000E+03  N 
  REF1 !

  PARAMETER TC(HCP_A3,NI:VA;0)  2.98150E+02  633;
  6.00000E+03   N REF0 !
   PARAMETER BMAGN(HCP_A3,NI:VA;0)  2.98150E+02  .52;
   6.00000E+03   N REF0 !



   PARAMETER G(HCP_A3,AU,SN:VA;0)  2.98140E+02  -13163.98256-4.48597*T;  
  3.00000E+03  N REF0 !
   PARAMETER G(HCP_A3,AU,SN:VA;1)  2.98140E+02  -18954.81-23.2973*T;  
  3.00000E+03  N REF0 !


  PARAMETER G(HCP_A3,AU,NI:VA;0)  2.98140E+02  +10000;  
  3.00000E+03  N REF0 !
  PARAMETER G(HCP_A3,NI,SN:VA;0)  2.98140E+02  +10000;  
  3.00000E+03  N REF0 !

  PARAMETER G(HCP_A3,AU,NI,SN:VA;0)  2.98140E+02  -274600+210*T;  
  3.00000E+03  N REF0 !


$============================================================================
$ AUSN
$============================================================================
 PHASE AU10SN_BETAL  %  1  1.0  !
    CONSTITUENT AU10SN_BETAL  :AU,NI,SN :  !

   PARAMETER G(AU10SN_BETAL,AU;0)  2.98140E+02  +125+.79*T+GHSERAU#;  
  3.00000E+03  N REF0 !
   PARAMETER G(AU10SN_BETAL,SN;0)  2.98140E+02  +GHSERSN#+3804-3.46*T;  
  3.00000E+03  N REF0 !
   PARAMETER G(AU10SN_BETAL,NI;0)  2.98140E+02  +GHSERNI#+5000;  
  3.00000E+03  N REF0 !

   PARAMETER G(AU10SN_BETAL,AU,SN;0)  2.98140E+02  -13546.6569-4.710696*T;  
  3.00000E+03  N REF0 !
   PARAMETER G(AU10SN_BETAL,AU,SN;1)  2.98140E+02  -14193.13-22.3922*T;  
  3.00000E+03  N REF0 !


   PARAMETER G(AU10SN_BETAL,AU,NI;0)  2.98140E+02  +10000;  
  3.00000E+03  N REF0 !

   PARAMETER G(AU10SN_BETAL,NI,SN;0)  2.98140E+02  +10000;  
  3.00000E+03  N REF0 !

   PARAMETER G(AU10SN_BETAL,AU,NI,SN;0)  2.98140E+02  -553355+635*T;
  3.00000E+03  N REF0 !






 PHASE AUSN2  %  2 .33333   .66667 !
    CONSTITUENT AUSN2  :AU : SN :  !

   PARAMETER G(AUSN2,AU:SN;0)  2.98140E+02  +.33333*GHSERAU#+.66667*GHSERSN#
  -14296.5524+5.4538*T;  3.00000E+03  N REF0 !




 PHASE AUSN4_ETAL  %  2 .2   .8 !
    CONSTITUENT AUSN4_ETAL  :AU%,NI : SN :  !

   PARAMETER G(AUSN4_ETAL,AU:SN;0)  2.98140E+02  +.2*GHSERAU#+.8*GHSERSN#
  -7790.2575+0.8355*T;  3.00000E+03  N REF0 !
   PARAMETER G(AUSN4_ETAL,NI:SN;0)  2.98140E+02  +.2*GHSERNI#+.8*GHSERSN#
  -9569.66+5.0104*T;  3.00000E+03  N REF0 !

 PARAMETER G(AUSN4_ETAL,AU,NI:SN;0)  2.98140E+02
 -13747.5+7.503*T;
  3.00000E+03  N REF0 !
 PARAMETER G(AUSN4_ETAL,AU,NI:SN;1)  2.98140E+02
 +4200;
  3.00000E+03  N REF0 !




 PHASE AU5SN  %  2 .84   .16 !
    CONSTITUENT AU5SN  :AU,NI : SN :  !

   PARAMETER G(AU5SN,AU:SN;0)  2.98140E+02  +.84*GHSERAU#+.16*GHSERSN#
  -4036.7822-3.36475*T;  3.00000E+03  N REF0 !

   PARAMETER G(AU5SN,NI:SN;0)  2.98140E+02  +.84*GHSERNI#+.16*GHSERSN#
  -11287.51+12.5013*T;  3.00000E+03  N REF0 !

   PARAMETER G(AU5SN,AU,NI:SN;0)  2.98140E+02
  -18080.78+12.0133*T;  3.00000E+03  N REF0 !




  PHASE AUSN  %  3 1   1   1 !
    CONSTITUENT AUSN  :SN : SN,VA : AU,NI :  !

 PARAMETER G(AUSN,SN:VA:AU;0)  2.98140E+02  -31490+4.34391*T
  +GHSERAU#+GHSERSN#;  3.00000E+03  N REF:0 !

 PARAMETER G(AUSN,SN:SN:AU;0)  2.98140E+02  -1000+.5*T
  +2*GHSERAU#+GHSERSN#;  3.00000E+03  N REF:0 !

 PARAMETER G(AUSN,SN:SN,VA:AU;0)  2.98150E+02  -20000+T;
   6.00000E+03   N REF0 !



 PARAMETER G(AUSN,SN:VA:NI;0)  2.98140E+02
  -47800.92-.3998*T
  +GHSERNI#+GHSERSN#;  3.00000E+03  N REF:0 !


 



$============================================================================
$ NI-SN
$============================================================================




 PHASE NI3SN_LT  %  2 .75   .25 !
    CONSTITUENT NI3SN_LT  :AU,NI,SN : NI,SN :  !

   PARAMETER G(NI3SN_LT,NI:NI;0)  2.98150E+02  +6300+GHSERNI#;   6.00000E+03   N 
  REF0 !
   PARAMETER G(NI3SN_LT,SN:NI;0)  2.98150E+02  +5000
  +.25*GHSERNI#+.75*GHSERSN#;   6.00000E+03   N REF0 !

   PARAMETER G(NI3SN_LT,NI:SN;0)  2.98150E+02  -28408+7.0009*T
  +.75*GHSERNI#+.25*GHSERSN#;   6.00000E+03   N REF0 !

   PARAMETER G(NI3SN_LT,SN:SN;0)  2.98150E+02  +5000+GHSERSN#;   6.00000E+03   N 
  REF0 !

   PARAMETER G(NI3SN_LT,AU:SN;0)  2.98150E+02  -1574.5421+5.3114*T
  +.75*GHSERAU#+.25*GHSERSN#;   6.00000E+03   N REF0 !










 PHASE NI3SN4  %  3 .25   .25   .5 !
    CONSTITUENT NI3SN4  :NI : NI,SN : SN :  !
   PARAMETER G(NI3SN4,NI:NI:SN;0)  2.98150E+02  -26678.56+4.301*T
   +.5*GHSERNI#+.5*GHSERSN#;   6.00000E+03   N REF0 !

   PARAMETER G(NI3SN4,NI:SN:SN;0)  2.98150E+02  +4613.24+8.749*T
   +.25*GHSERNI#+.75*GHSERSN#;   6.00000E+03   N REF0 !

   PARAMETER G(NI3SN4,NI:NI,SN:SN;0)  2.98150E+02  -41928.16;
   6.00000E+03   N REF0 !








  PHASE NI3SN2  %  3 1   1   1 !
    CONSTITUENT NI3SN2  :AU,NI,VA : NI,VA : NI,SN :  !

   PARAMETER G(NI3SN2,NI:NI:NI;0)  2.98150E+02  +31637.299+355.176064*T
  -66.288*T*LN(T)-.0145221*T**2;   6.00000E+03   N REF0 !
   PARAMETER G(NI3SN2,VA:NI:NI;0)  2.98150E+02  +21091.532+236.784043*T
  -44.192*T*LN(T)-.0096814*T**2;   6.00000E+03   N REF0 !
   PARAMETER G(NI3SN2,NI:VA:NI;0)  2.98150E+02  +21091.532+236.784043*T
  -44.192*T*LN(T)-.0096814*T**2;   6.00000E+03   N REF0 !
   PARAMETER G(NI3SN2,VA:VA:NI;0)  2.98150E+02  +10545.766+118.58688*T
  -22.096*T*LN(T)-.0048407*T**2;   6.00000E+03   N REF0 !
   PARAMETER G(NI3SN2,NI:NI:SN;0)  2.98150E+02  +2*GHSERNI#+GHSERSN#-83734.818
  +14.6888165*T;   6.00000E+03   N REF0 !
   PARAMETER G(NI3SN2,VA:NI:SN;0)  2.98150E+02  +GHSERNI#+GHSERSN#+5000;   
  6.00000E+03   N REF0 !
   PARAMETER G(NI3SN2,NI:VA:SN;0)  2.98150E+02  +GHSERNI#+GHSERSN#-52177.98
  +10.774*T;   6.00000E+03   N REF0 !
   PARAMETER G(NI3SN2,VA:VA:SN;0)  2.98150E+02  +GHSERSN#+20000;   6.00000E+03 
    N REF0 !
   PARAMETER G(NI3SN2,NI:NI,VA:SN;0)  2.98150E+02  -9784.4-12.385*T;   
  6.00000E+03   N REF0 !
   PARAMETER G(NI3SN2,NI:NI,VA:SN;1)  2.98150E+02  +12000;   6.00000E+03   N 
  REF0 !






   PARAMETER G(NI3SN2,AU:NI:SN;0)  2.98150E+02  -25039.1641+23.2401*T
   +1*GHSERNI#+GHSERSN#+GHSERAU#;   6.00000E+03   N REF0 !
   PARAMETER G(NI3SN2,AU:VA:SN;0)  2.98150E+02  -26604.42+2.8011*T
  +GHSERSN#+GHSERAU#;   6.00000E+03   N REF0 !
     PARAMETER G(NI3SN2,AU,NI:VA:SN;0)  2.98150E+02
  -24022.03+14.0021*T;   6.00000E+03   N REF0 !
     PARAMETER G(NI3SN2,AU,NI:VA:SN;1)  2.98150E+02
  -1520.16;   6.00000E+03   N REF0 !

     PARAMETER G(NI3SN2,AU,NI:NI:SN;0)  2.98150E+02
  +18407.62-81.2035*T;   6.00000E+03   N REF0 !



    PARAMETER G(NI3SN2,AU:NI,VA:SN;0)  2.98150E+02
  -29989.98;   6.00000E+03   N REF0 !






$============================================================================
$ TERNARY COMPOUND
$============================================================================

 PHASE AUNI2SN4  %  3 .143   .286   .571 !
    CONSTITUENT AUNI2SN4  :AU : NI : SN :  !

   PARAMETER G(AUNI2SN4,AU:NI:SN;0)  2.98140E+02  -22224.1568+2.0665*T
 +.143*GHSERAU#+.571*GHSERSN#+.286*GHSERNI#;
  3.00000E+03  N REF0 !



 LIST_OF_REFERENCES
 NUMBER  SOURCE
   REF1   'PURE4 - SGTE Pure Elements (Unary) Database (Version 4.6), 
         developed by SGTE (Scientific Group Thermodata Europe), 1991-2008, 
         and provided by TCSAB (Jan. 2008). '
  ! 
 
