 TEMP-LIM 298.15 6000.00 !
 ELEMENT VA   VACUUM                  0.0000E+00  0.0000E+00  0.0000E+00!
 ELEMENT C    GRAPHITE                1.2011E+01  1.0540E+03  5.7400E+00!
 ELEMENT CO   HCP_A3                  5.8933E+01  0.0000E+00  0.0000E+00!
 ELEMENT CR   BCC_A2                  5.1996E+01  4.0500E+03  2.3560E+01!
 ELEMENT FE   BCC_A2                  5.5847E+01  4.4890E+03  2.7280E+01!
 ELEMENT HF   HCP_A3                  1.7849E+02  5.8450E+03  4.3560E+01!
 ELEMENT NB   BCC_A2                  9.2906E+01  5.2200E+03  3.6270E+01!
 ELEMENT NI   FCC_A1                  5.8690E+01  4.7870E+03  2.9796E+01!
 ELEMENT TA   BCC_A2                    180.9479    5681.872   41.4718 ! 
 ELEMENT TI   HCP_A3                     47.88      4824.      30.72   ! 
 ELEMENT W    BCC_A2                  1.8385E+02  4.9700E+03  3.2620E+01!
 ELEMENT ZR   HCP_A3                  9.1224E+01  5.5663E+03  3.9181E+01!

 FUNCTION GHSERCC 298.14 -17368.441+170.73*T-24.3*T*LN(T)-4.723E-04*T**2
   +2562600*T**(-1)-2.643E+08*T**(-2)+1.2E+10*T**(-3); 6000 N !

 FUNCTION GHSERCO 298.14 +310.241+133.36601*T-25.0861*T*LN(T)
   -.002654739*T**2-1.7348E-07*T**3+72527*T**(-1); 1768 Y
   -17197.666+253.28374*T-40.5*T*LN(T)+9.3488E+30*T**(-9); 6000 N !

 FUNCTION GHSERCR 298.14 -8856.94+157.48*T-26.908*T*LN(T)+.00189435*T**2
   -1.47721E-06*T**3+139250*T**(-1); 2180 Y
   -34869.344+344.18*T-50*T*LN(T)-2.88526E+32*T**(-9); 6000 N !

 FUNCTION GHSERNB 298.14 -8519.353+142.045475*T-26.4711*T*LN(T)
   +2.03475E-04*T**2-3.5012E-07*T**3+93399*T**(-1); 2750 Y
   -37669.3+271.720843*T-41.77*T*LN(T)+1.528238E+32*T**(-9); 6000 N !

 FUNCTION GHSERNI 298.14 -5179.159+117.854*T-22.096*T*LN(T)
  -0.0048407*T**2; 1728 Y
  -27840.655+279.135*T-43.1*T*LN(T)+1.12754E+31*T**(-9); 3000 N !

 FUNCTION GHSERFE 298.14 +1225.7+124.134*T-23.5143*T*LN(T)
  -.00439752*T**2-5.8927E-08*T**3+77359*T**(-1); 1811 Y
  -25383.581+299.31255*T-46*T*LN(T)+2.29603E+31*T**(-9); 6000 N !

 FUNCTION GHSERHF 298.14 -6987.297+110.744026*T-22.7075*T*LN(T)
   -0.004146145*T**2-4.77E-10*T**3-22590*T**(-1); 2506 Y
   -1446776.329+6193.609991*T-787.5363829*T*LN(T)+0.1735215*T**2
   -7.575759E-06*T**3+5.01742495E+08*T**(-1); 6000 N !

 FUNCTION GHSERWW  298.14  -7646.311+130.4*T-24.1*T*LN(T)-.001936*T**2
   +2.07E-07*T**3+44500*T**(-1)-5.33E-11*T**4; 3695 Y
   -82868.801+389.362335*T-54*T*LN(T)+1.528621E+33*T**(-9); 6000 N !

 FUNCTION GHSERZR 298.15 -7827.595+125.64905*T-24.1618*T*LN(T) 
   -.00437791*T**2+34971*T**(-1); 2128 Y 
   -26085.921+262.724183*T-42.144*T*LN(T)-1.342895E+31*T**(-9); 6000 N! 

 FUNCTION GCRM23C6 298.14 -521983+3622.24*T-620.965*T*LN(T)
   -.126431*T**2; 6000 N !
  
 FUNCTION GCOM23C6 298.14 145000+116*T+23*GHSERCO#+6*GHSERCC#; 6000 N !

 FUNCTION GCRM3C2 298.14 -100823.8+530.66989*T-89.6694*T*LN(T)
   -.0301188*T**2; 6000 N ! 

 FUNCTION GCOCRM23 298.14 -76966; 6000 N !

 FUNCTION GCRM7C3 298.14 -201690+1103.128*T-190.177*T*LN(T)
   -.0578207*T**2; 6000 N !

 FUNCTION GCRFCC 298.14 +7284+.163*T+GHSERCR#; 6000 N !

 FUNCTION GHCPNI  298.15 +6610.72+GHSERNI#; 6000 N !

 FUNCTION GNIHCP 298.15 +1046+1.255*T+GHSERNI; 6000 N !

 FUNCTION GNIBCC 298.15 +8715.084-3.556*T+GHSERNI#; 6000 N !

 FUNCTION GNIM23C6 298.15 +210000-84.71*T+23*GHSERNI#+6*GHSERCC#; 6000 N !

 FUNCTION GFEM23C6  298.15 +7.666667*GFECEM#-1.666667*GHSERCC#+66920
     -40*T; 6000 N !

 FUNCTION GCOBCC 298.14 +2938-.7138*T+GHSERCO#; 6000 N !

$ FUNCTION GNIBCC  298.15 +8715.084-3.556*T+GHSERNI#; 6000 N !

 FUNCTION GCOFCC 298.15 +427.59-.615248*T+GHSERCO#; 6000 N !

 FUNCTION GWFCC 298.14 +19300+.63*T+GHSERWW#; 6000 N !

 FUNCTION GWHCP 298.14 +14750+GHSERWW#; 6000 N !

 FUNCTION GDWSIG 298.14  +GHSERWW#+12000; 6000 N !

 FUNCTION GHEXTNB 298.14  -8519.35+142.048*T-26.4711*T*LN(T)
     +2.03475E-04*T**2-3.50119E-07*T**3+93398.8*T**(-1); 6000 N !

 FUNCTION GNBFCC 298.14 +13500+1.7*T+GHEXTNB#; 6000 N !

 FUNCTION GFELIQ 298.14 +12040.17-6.55843*T-3.6751551E-21*T**7
     +GHSERFE#; 1811 Y
     -10839.7+291.302*T-46*T*LN(T); 6000 N !

 FUNCTION GFECEM 298.15 -10745+706.04*T-120.6*T*LN(T); 6000 N !

 FUNCTION GFEFCC 298.14 -1462.4+8.282*T-1.15*T*LN(T)+6.4E-04*T**2
     +GHSERFE#; 1811 Y
     -27098.266+300.25256*T-46*T*LN(T)+2.78854E+31*T**(-9); 6000 N !

 FUNCTION GHSERTA   298.15  -7285.889+119.139857*T-23.7592624*T*LN(T)
       -0.002623033*T**2+1.70109E-07*T**3-3293*T**(-1);
      1300.00  Y  -22389.955+243.88676*T-41.137088*T*LN(T)
       +0.006167572*T**2-6.55136E-07*T**3+2429586*T**(-1);
      2500.00  Y  +229382.886-722.59722*T+78.5244752*T*LN(T)
       -0.017983376*T**2+1.95033E-07*T**3-93813648*T**(-1);
      3290.00  Y  -1042384.01+2985.49125*T-362.159132*T*LN(T)
       +0.043117795*T**2-1.055148E-06*T**3+5.54714342E+08*T**(-1);
      6000.00  N !
 FUNCTION GTALIQ    298.15  +29160.975-7.578729*T+GHSERTA;
      1000.00  Y  +43884.339-61.981795*T+0.0279523*T*LN(T)
       -0.012330066*T**2+6.14599E-07*T**3-3523338*T**(-1);
      3290.00  Y  -6314.543+258.110873*T-41.84*T*LN(T);
      6000.00  N !
 FUNCTION GFCCTA    298.15  +GHSERTA+16000+1.7*T;                      6000 N !
 
 FUNCTION GLIQZR 298.15 +18147.703-9.080762*T+1.6275E-22*T**7 +GHSERZR; 
    2128 Y 
    +17804.649-8.91153*T+1.343E+31*T**(-9)+GHSERZR; 6000 N! 

 FUNCTION GZRBCC 298.15 +7302.056-.70335*T-1.445606*T*LN(T)+.004037826*T**2 
   -9.7289735E-09*T**3-7.6142894E-11*T**4-9737*T**(-1)+GHSERZR; 2128 Y 
   -4620.034+1.55998*T+1.41035E+32*T**(-9); 6000 N! 

 FUNCTION GZRHCP 298.14 -7829+125.649*T-24.1618*T*LN(T)-0.00437791*T**2
     +34971*T**(-1); 6000 N !

 FUNCTION GCOZR 298.15 18387+15.769*T; 3000 N!

 FUNCTION GCO11ZR2 298.15 -25135+3.357*T; 6000 N! 

 FUNCTION GCO23ZR6 298.15 -29892+2.373*T; 6000 N!

 FUNCTION GCO2ZR 298.15 -41423+2.302*T; 6000 N! 

 FUNCTION GCOZR2 298.15 -30094+0.490*T; 6000 N!

 FUNCTION GCOZR3 298.15 -25620+2.993*T; 6000 N! 

 FUNCTION GZR4 298.15 +3000+2.5*T; 6000 N! 

 FUNCTION GCO3ZR 298.15 -30000+2.5*T; 6000 N! 

 FUNCTION GCOZRZR 298.15 +GHSERCO+3*GHSERZR+4*GCOZR3; 6000 N! 

 FUNCTION GZRZRZR 298.15 +4*GHSERZR+4*GZR4; 6000 N! 

 FUNCTION GCOZRCO 298.15 +3*GHSERCO+GHSERZR+4*GCO3ZR; 6000 N! 

 FUNCTION GTIFCC 2.98150E+02 +6000-.1*T+GHSERTI#; 6.00000E+03 N ! 
 
 FUNCTION GCOC15 2.98150E+02 +GHSERCO#+5000; 6.00000E+03 N ! 

 FUNCTION GTIC15 2.98150E+02 +GHSERTI#+5000; 6.00000E+03 N ! 

 FUNCTION TCCOTI3 2.98150E+02 -1750; 6.00000E+03 N ! 

 FUNCTION TCCO2TI2 2.98150E+02 -1750; 6.00000E+03 N ! 

 FUNCTION TCCO3TI 2.98150E+02 -1750; 6.00000E+03 N ! 


 TYPE_DEFINITION % SEQ *!
 DEFINE_SYSTEM_DEFAULT ELEMENT 2 !
 DEFAULT_COMMAND DEF_SYS_ELEMENT VA !
 
 
 PHASE LIQUID:L % 1 1 ! 
    CONSTITUENT LIQUID:L :C,CO,CR,FE,HF,NB,NI,TA,TI,W,ZR:  ! 
    PARAMETER G(LIQUID,C;0) 298.14 +117369-24.63*T+GHSERCC#; 6000 N !
    PARAMETER G(LIQUID,CO;0) 298.14 +15085.037-8.931932*T-2.19801E-21*T**7
     +GHSERCO#; 1768 Y
     +16351.056-9.683796*T-9.3488E+30*T**(-9)+GHSERCO#; 6000 N !
    PARAMETER G(LIQUID,CR;0) 298.14 +24339.955-11.420225*T+2.37615E-21*T**7
     +GHSERCR#; 2180 Y
     +18409.36-8.563683*T+2.88526E+32*T**(-9)+GHSERCR#; 6000 N !
    PARAMETER G(LIQUID,FE;0) 298.15 +GFELIQ#; 6000 N ! 
    PARAMETER G(LIQUID,HF;0) 298.14 20414.959+99.790933*T-22.7075*T*LN(T)
     -0.004146145*T**2-4.77E-10*T**3-22590*T**(-1); 1000 Y
     49731.499-149.91739*T+12.116812*T*LN(T)-0.021262021*T**2
     +1.376466E-06*T**3-449699*T**(-1); 2506 Y
     -4247.217+265.470523*T-44*T*LN(T); 6000 N !
    PARAMETER G(LIQUID,NB;0) 298.14 +29781.555-10.816418*T
     -3.06098E-23*T**7+GHSERNB#; 2750 Y
     +30169.902-10.964695*T-1.528238E+32*T**(-9)+GHSERNB#; 6000 N !
    PARAMETER G(LIQUID,NI;0) 298.14 +16414.686-9.397*T-3.82318E-21*T**7
     +GHSERNI#; 1728 Y
     +18290.88-10.537*T-1.127554E+31*T**(-9)+GHSERNI#; 3000 N !
    PARAMETER G(LIQUID,TA;0) 298.14 GTALIQ#; 6000 N !
    PARAMETER G(LIQUID,TI;0) 298.14 +4134.494+126.7062*T 
     -23.9933*T*LN(T)-.004777975*T**2+1.06716E-07*T**3+72636*T**(-1); 
     900 Y 
     +4382.601+126.0791*T-23.9887*T*LN(T)-.0042033*T**2-9.0876E-08*T**3 
     +42680*T**(-1); 1155 Y 
     +13103.253+60.0676*T-14.9466*T*LN(T)-.0081465*T**2+2.02715E-07*T**3 
     -1477660*T**(-1); 1300 Y 
     +369519.198-2553.9505*T+342.059267*T*LN(T)-.163409355*T**2 
     +1.2457117E-05*T**3-67034516*T**(-1); 1940.99 Y 
     -19887.066+298.8087*T-46.29*T*LN(T); 4000 N ! 
    PARAMETER G(LIQUID,W;0) 298.14 +52160.584-14.10999*T
     -2.713468E-24*T**7+GHSERWW#; 3695 Y
     +52432.75-14.187335*T-1.528621E+33*T**(-9)+GHSERWW#; 6000 N !
    PARAMETER G(LIQUID,ZR;0) 298.15 +GLIQZR; 6000 N !
    PARAMETER L(LIQUID,C,CO;0) 298.14 -107940.6+24.956*T; 6000 N !
    PARAMETER L(LIQUID,C,CO;1) 298.14 -9805.5; 6000 N !
    PARAMETER L(LIQUID,C,CR;0) 298.14 -90526-25.9116*T; 6000 N !
    PARAMETER L(LIQUID,C,CR;1) 298.14 80000; 6000 N ! 
    PARAMETER L(LIQUID,C,CR;2) 298.14 80000; 6000 N !
    PARAMETER L(LIQUID,C,FE;0) 298.14 -124320+28.5*T; 6000 N !
    PARAMETER L(LIQUID,C,FE;1) 298.14 19300; 6000 N !
    PARAMETER L(LIQUID,C,FE;2) 298.14 +49260-19*T; 6000 N !
    PARAMETER L(LIQUID,C,HF;0) 298.14 -395564+42.9738*T; 6000 N !
    PARAMETER L(LIQUID,C,HF;1) 298.14 -67417.5; 6000 N ! 
    PARAMETER L(LIQUID,C,HF;2) 298.14 225427-44.5905*T; 6000 N ! 
    PARAMETER L(LIQUID,C,HF;3) 298.14 231368-29.9471*T; 6000 N ! 
    PARAMETER L(LIQUID,C,NB;0) 298.14 -317748+38.851*T; 6000 N !
    PARAMETER L(LIQUID,C,NB;1) 298.14 13125; 6000 N !
    PARAMETER L(LIQUID,C,NB;2) 298.14 55982; 6000 N !
    PARAMETER L(LIQUID,C,NI;0) 298.14 -111479+35.2685*T; 6000 N !
    PARAMETER L(LIQUID,C,TA;0) 298.14 -173413.25-7.1858292*T; 6000 N !
    PARAMETER L(LIQUID,C,TA;1) 298.14 23643.159; 6000 N !
    PARAMETER L(LIQUID,C,TI;0) 298.14 -141051-39.5*T; 6000 N !
    PARAMETER L(LIQUID,C,W;0) 298.14 -107920+6.38*T; 6000 N !
    PARAMETER L(LIQUID,C,W;1) 298.14 +173900-34.25*T; 6000 N !
    PARAMETER L(LIQUID,C,W;2) 298.14 83700; 6000 N !
    PARAMETER L(LIQUID,C,ZR;0) 298.14 -305420.6+16.01676*T; 6000 N !
    PARAMETER L(LIQUID,C,ZR;1) 298.14 -39269.66; 6000 N ! 
    PARAMETER L(LIQUID,C,ZR;2) 298.14 50000; 6000 N ! 
    PARAMETER L(LIQUID,CO,CR;0) 298.14 -3034-5.624*T; 6000 N !
    PARAMETER L(LIQUID,CO,CR;1) 298.14 909; 6000 N !
    PARAMETER L(LIQUID,CO,FE;0) 298.15 -9312; 6000 N !
    PARAMETER L(LIQUID,CO,FE;1) 298.15 -1752; 6000 N !
    PARAMETER L(LIQUID,CO,NB;0) 298.14 -85028+14.284*T; 6000 N !
    PARAMETER L(LIQUID,CO,NB;1) 298.14 -9936; 6000 N !
    PARAMETER L(LIQUID,CO,NI;0) 298.14 1331; 6000 N !
    PARAMETER L(LIQUID,CO,TA;0) 298.14 -171992+35.000*T; 6000 N !
    PARAMETER L(LIQUID,CO,W;0) 298.14 -42258+13.616*T; 6000 N !
    PARAMETER L(LIQUID,CO,ZR;0) 298.15 -143226+11.557*T; 6000 N! 
    PARAMETER L(LIQUID,CO,ZR;1) 298.15 -10447; 6000 N! 
    PARAMETER L(LIQUID,CO,ZR;2) 298.15 +17510; 6000 N! 
    PARAMETER L(LIQUID,CR,FE;0) 298.15 -14550+6.65*T; 6000 N !
    PARAMETER L(LIQUID,CR,NB;0) 298.14 -10304.91+0.60618*T; 6000 N !
    PARAMETER L(LIQUID,CR,NB;1) 298.14 -8513.45+0.50080*T; 6000 N !
    PARAMETER L(LIQUID,CR,NI;0) 298.14 +318-7.3318*T; 6000 N !
    PARAMETER L(LIQUID,CR,NI;1) 298.14 +16941-6.3696*T; 6000 N !
    PARAMETER L(LIQUID,CR,TA;0) 298.14 -18600+6.2*T; 6000 N !
    PARAMETER L(LIQUID,CR,TA;1) 298.14 +12600-4.2*T; 6000 N !
    PARAMETER L(LIQUID,CR,TI;0) 298.14 5250; 6000 N !
    PARAMETER L(LIQUID,CR,TI;1) 298.14 1500; 6000 N ! 
    PARAMETER L(LIQUID,CR,W;0) 298.14 -16800+10*T; 6000 N !
    PARAMETER L(LIQUID,CR,W;1) 298.14 9000; 6000 N !
    PARAMETER L(LIQUID,CR,ZR;0) 298.14 -12971.34+1.20015*T; 6000 N !
    PARAMETER L(LIQUID,CR,ZR;1) 298.14 8025.96-0.74259*T; 6000 N ! 
    PARAMETER L(LIQUID,CR,ZR;2) 298.14 -9984.87+0.92383*T; 6000 N ! 
    PARAMETER L(LIQUID,FE,NI;0) 298.15 -18378.86+6.03912*T; 6000 N !
    PARAMETER L(LIQUID,FE,NI;1) 298.15 +9228.1-3.54642*T; 6000 N !
    PARAMETER L(LIQUID,FE,W;0) 298.15 -3607+5.65*T; 6000 N !
    PARAMETER L(LIQUID,FE,W;1) 298.15 -5450; 6000 N !
    PARAMETER L(LIQUID,NI,NB;0) 298.14 -80037.3-6.31498*T; 6000 N !
    PARAMETER L(LIQUID,NI,NB;1) 298.14 97884.9-19.01069*T; 6000 N !
    PARAMETER L(LIQUID,NI,NB;2) 298.14 10000; 6000 N !
    PARAMETER L(LIQUID,NI,TA;0) 298.14 -105154; 6000 N !
    PARAMETER L(LIQUID,NI,TA;1) 298.14 -55753; 6000 N !
    PARAMETER L(LIQUID,NI,TI;0) 298.15 -153707.39+34.859449*T; 3000 N !
    PARAMETER L(LIQUID,NI,TI;1) 298.15 -81824.755+25.809901*T; 3000 N !
    PARAMETER L(LIQUID,NI,TI;2) 298.15 -10.077897*T; 3000 N !
    PARAMETER L(LIQUID,NI,W;0) 298.14 +16290-10.25*T; 6000 N !
    PARAMETER L(LIQUID,NI,W;1) 298.14 -22450; 6000 N !
    PARAMETER L(LIQUID,NI,ZR;0) 298.14 -200000+14.2*T; 6000 N !
    PARAMETER L(LIQUID,NI,ZR;1) 298.14 -40000+2.0*T; 6000 N ! 
    PARAMETER L(LIQUID,NI,ZR;2) 298.14 20000-9.2*T; 6000 N ! 
    PARAMETER L(LIQUID,C,CO,CR;0) 298.14 -302180; 6000 N ! 
    PARAMETER L(LIQUID,C,CO,CR;1) 298.14 +35575; 6000 N !
    PARAMETER L(LIQUID,C,CO,CR;2) 298.14 +35575; 6000 N ! 
    PARAMETER L(LIQUID,C,CO,NI;0) 298.14 +50462-27.562*T; 6000 N !
    PARAMETER L(LIQUID,C,CO,FE;0) 298.14 +11646-5.657*T; 6000 N !
    PARAMETER L(LIQUID,C,CO,W;0) 298.14 -70718; 6000 N !
    PARAMETER L(LIQUID,C,CR,FE;0) 298.14 -496063; 6000 N !
    PARAMETER L(LIQUID,C,CR,FE;1) 298.14 57990; 6000 N !
    PARAMETER L(LIQUID,C,CR,FE;2) 298.14 61404; 6000 N !
    PARAMETER L(LIQUID,C,FE,NI;0) 298.15 +122200-58.8*T; 6000 N !
    PARAMETER L(LIQUID,C,FE,NI;1) 298.15 +92200-58.8*T; 6000 N !
    PARAMETER L(LIQUID,C,FE,NI;2) 298.15 +152200-58.8*T; 6000 N !
    PARAMETER L(LIQUID,C,NB,W;0) 298.14 -195015; 6000 N !
    PARAMETER L(LIQUID,C,NB,W;1) 298.14 60769; 6000 N !
    PARAMETER L(LIQUID,C,NB,W;2) 298.14 176422; 6000 N !
    PARAMETER L(LIQUID,C,NI,W;0) 298.14 +1100000-300*T; 6000 N  !
    PARAMETER L(LIQUID,C,NI,W;1) 298.14 -235500; 6000 N !
    PARAMETER L(LIQUID,C,NI,W;2) 298.14 +480000-150*T; 6000 N !
    PARAMETER L(LIQUID,CO,NI,W;0) 298.14 -77000; 6000 N !
    PARAMETER L(LIQUID,CO,NI,W;1) 298.14 -67282; 6000 N !
    PARAMETER L(LIQUID,CO,NI,W;2) 298.14 0; 6000 N !
    PARAMETER L(LIQUID,CR,FE,NI;0) 298.15 14510; 6000 N !
    PARAMETER L(LIQUID,CR,FE,NI;1) 298.15 11977; 6000 N !
    PARAMETER L(LIQUID,CR,FE,NI;2) 298.15 5147; 6000 N !
    PARAMETER L(LIQUID,C,CO,NI,W;0) 298.14 -785000; 6000 N !


PHASE BCC_A2  %&  2 1 3 !
    TYPE_DEFINITION & GES A_P_D BCC_A2 MAGNETIC  -1.0    0.4  !
    CONSTITUENT BCC_A2 :CO,CR,FE,HF,NB,NI,TA,TI,W,ZR,VA : C,VA : !
    PARAMETER G(BCC_A2,VA:VA;0) 298.14 100*T; 6000 N ! 
    PARAMETER G(BCC_A2,CO:VA;0) 298.14 +2938-0.7138*T+GHSERCO#; 6000 N !
    PARAMETER G(BCC_A2,CR:VA;0) 298.14 +GHSERCR#; 6000 N !
    PARAMETER G(BCC_A2,FE:VA;0) 298.14 +GHSERFE#; 6000 N !
    PARAMETER G(BCC_A2,HF:VA;0) 298.14 5370.703+103.836026*T
     -22.8995*T*LN(T)-0.004206605*T**2+8.71923E-07*T**3-22590*T**(-1)
     -1.446E-10*T**4; 2506 Y
     1912456.771-8624.20573*T+1087.6141247*T*LN(T)-0.286857065*T**2
     +1.3427829E-05*T**3-6.10085091E+08*T**(-1); 6000 N !
    PARAMETER G(BCC_A2,NB:VA;0) 298.14 +GHSERNB#; 6000 N !
    PARAMETER G(BCC_A2,NI:VA;0) 298.14 +8715.084-3.556*T+GHSERNI#; 6000 N !
    PARAMETER G(BCC_A2,W:VA;0) 298.14 +GHSERWW#; 6000 N !
    PARAMETER G(BCC_A2,ZR:VA;0) 298.15 +GZRBCC; 3000 N! 
    PARAMETER G(BCC_A2,CO:C;0) 298.14 +248204-31.271*T+GHSERCO#
      +3*GHSERCC#; 6000 N !
    PARAMETER G(BCC_A2,CR:C;0) 298.14 +416000+GHSERCR#+3*GHSERCC#; 6000 N !
    PARAMETER G(BCC_A2,FE:C;0) 298.15 +322050+75.667*T+GHSERFE#
      +3*GHSERCC#; 6000 N !
    PARAMETER G(BCC_A2,HF:C;0) 298.14 -75417.6+584.036*T
      -90.8379*T*LN(T)-0.003853240*T**2+2223284*T**(-1); 6000 N !
    PARAMETER G(BCC_A2,NB:C;0) 298.14 520879-70.807*T+GHSERNB#
      +3*GHSERCC#; 6000 N !
    PARAMETER G(BCC_A2,NI:C;0) 298.14 +400000-100*T+GHSERNI#
      +3*GHSERCC#; 6000 N !
    PARAMETER G(BCC_A2,W:C;0) 298.14 +375100-35.87*T+GHSERWW#
     +3*GHSERCC#; 6000 N !
    PARAMETER G(BCC_A2,ZR:C;0) 298.14 -142838.2+631.7121*T-96.28173*T*LN(T)
       -1.856037E-03*T**2-9.2968513E-08*T**3+2261356*T**(-1)
       -7.933899E+09*T**(-3); 6000 N !
    PARAMETER L(BCC_A2,CR:C,VA;0) 298.14 -190*T; 6000 N ! 
    PARAMETER L(BCC_A2,FE:C,VA;0) 298.14 -190*T; 6000 N !
    PARAMETER L(BCC_A2,HF:C,VA;0) 298.14 -435839; 6000 N ! 
    PARAMETER L(BCC_A2,NB:C,VA;0) 298.14 -588143; 6000 N !
    PARAMETER L(BCC_A2,TA:C,VA;0) 298.14 -749073.01; 6000 N !
    PARAMETER L(BCC_A2,TI:C,VA;0) 298.14 -805814; 6000 N !
    PARAMETER L(BCC_A2,ZR:C,VA;0) 298.14 -223221.3; 6000 N !
    PARAMETER L(BCC_A2,CO,CR:VA;0) 298.14 +17208-13.519*T; 6000 N !
    PARAMETER L(BCC_A2,CO,CR:VA;1) 298.14 -5470; 6000 N !
    PARAMETER L(BCC_A2,CO,FE:VA;0) 298.14 -23669+103.9627*T
      -12.7886*T*LN(T); 6000 N !
    PARAMETER L(BCC_A2,CO,NB:VA;0) 298.14 6627; 6000 N !
    PARAMETER L(BCC_A2,CO,NI:VA;0) 298.14 2000; 6000 N !
    PARAMETER L(BCC_A2,CO,TA:VA;0) 298.14 -73084+12.334*T; 6000 N !
    PARAMETER L(BCC_A2,CO,TI:VA;0) 298.14 -115660+40.762*T; 6000 N ! 
    PARAMETER L(BCC_A2,CO,W:VA;0) 298.14 56517; 6000 N !
    PARAMETER L(BCC_A2,CO,ZR:VA;0) 298.14 -57309; 6000 N! 
    PARAMETER L(BCC_A2,CO,ZR:VA;1) 298.14 -1649; 6000 N! 
    PARAMETER L(BCC_A2,CR,FE:VA;0) 298.14 +20500-9.68*T; 6000 N !
    PARAMETER L(BCC_A2,CR,NB:VA;0) 298.14 43426.41-13.01153*T; 6000 N !
    PARAMETER L(BCC_A2,CR,NB:VA;1) 298.14 13201.20-6.66604*T; 6000 N !
    PARAMETER L(BCC_A2,CR,NI:VA;0) 298.14 +17170-11.8199*T; 6000 N !
    PARAMETER L(BCC_A2,CR,NI:VA;1) 298.14 +34418-11.8577*T; 6000 N !
    PARAMETER L(BCC_A2,CR,TA:VA;0) 298.14 46800-11.4*T; 6000 N !
    PARAMETER L(BCC_A2,CR,TA:VA;1) 298.14 +37200-17.2*T; 6000 N !
    PARAMETER L(BCC_A2,CR,TA:VA;2) 298.14 +16200-5.4*T; 6000 N !
    PARAMETER L(BCC_A2,CR,TI:VA;0) 298.14 19100; 6000 N ! 
    PARAMETER L(BCC_A2,CR,TI:VA;1) 298.14 5500; 6000 N !
    PARAMETER L(BCC_A2,CR,TI:VA;2) 298.14 1750; 6000 N !
    PARAMETER L(BCC_A2,CR,W:VA;0) 298.14 31520; 6000 N !
    PARAMETER L(BCC_A2,CR,W:VA;1) 298.14 -1320; 6000 N !
    PARAMETER L(BCC_A2,CR,ZR:VA;0) 298.14 16555.47+4.92028*T; 6000 N ! 
    PARAMETER L(BCC_A2,CR,ZR:VA;1) 298.14 11365.57; 6000 N ! 
    PARAMETER L(BCC_A2,FE,NI:VA;0) 298.14 -956.63-1.28726*T; 6000 N !
    PARAMETER L(BCC_A2,FE,NI:VA;1) 298.15 +1789.03-1.92912*T; 6000 N !
    PARAMETER L(BCC_A2,FE,W:VA;0) 298.15 41544; 6000 N !
    PARAMETER L(BCC_A2,FE,W:VA;1) 298.15 -12621; 6000 N !
    PARAMETER L(BCC_A2,NB,W:VA;0) 298.14 -34343+6.074*T; 6000 N !
    PARAMETER L(BCC_A2,NI,NB:VA;0) 298.14 -18724.3+5.02405*T; 6000 N !
    PARAMETER L(BCC_A2,NI,W:VA;0) 298.14 82000; 6000 N !
    PARAMETER L(BCC_A2,NI,TA:VA;0) 298.14 -36970-18.272*T; 6000 N !
    PARAMETER L(BCC_A2,NI,TA:VA;1) 298.14 -55753; 6000 N !
    PARAMETER L(BCC_A2,NI,TI:VA;0) 298.14 -97427.443+12.112037*T; 3000 N !
    PARAMETER L(BCC_A2,NI,TI:VA;1) 298.14 -32315.338; 3000 N !
    PARAMETER L(BCC_A2,NI,ZR:VA;0) 298.14 -102000; 6000 N ! 
    PARAMETER L(BCC_A2,NI,ZR:VA;1) 298.14 -20000; 6000 N ! 
    PARAMETER L(BCC_A2,TA,W:VA;0) 298.14 -27260.5+5.9362*T; 6000 N !
    PARAMETER L(BCC_A2,TA,W:VA;1) 298.14 -6454.6+1.8370*T; 6000 N !
    PARAMETER L(BCC_A2,TA,ZR:VA;0) 298.14 29499.6+2.6723*T; 6000 N !
    PARAMETER L(BCC_A2,TA,ZR:VA;1) 298.14 -4396.2+4.4302*T; 6000 N !
    PARAMETER L(BCC_A2,TA,ZR:VA;2) 298.14 -6353.3+4.9066*T; 6000 N !
    PARAMETER L(BCC_A2,CR,FE,NI:VA;0) 298.15 -2673+2.0415*T; 6000 N !
    PARAMETER L(BCC_A2,CO,CR:C;0) 298.14 +17208-13.519*T; 6000 N !
    PARAMETER L(BCC_A2,CO,CR:C;1) 298.14 -5470; 6000 N !
    PARAMETER L(BCC_A2,CO,NI:C;0) 298.14 6000; 6000 N !
    PARAMETER L(BCC_A2,CO,W:C;0) 298.14 -100000; 6000 N !
    PARAMETER L(BCC_A2,CR,FE:C;0) 298.14 -1250000+667.7*T; 6000 N !
    PARAMETER L(BCC_A2,FE,NI:C;0) 298.14 -956.63-1.28726*T; 6000 N !
    PARAMETER L(BCC_A2,FE,NI:C;1) 298.14 +1789.03-1.92912*T; 6000 N !
    PARAMETER TC(BCC_A2,CO:VA;0) 298.14 1450; 6000 N ! 
    PARAMETER TC(BCC_A2,CR:VA;0) 298.14 -311.5; 6000 N !
    PARAMETER TC(BCC_A2,FE:VA;0) 298.14 1043; 6000 N !
    PARAMETER TC(BCC_A2,NI:VA;0) 298.14 575; 6000 N !
    PARAMETER TC(BCC_A2,CR:C;0) 298.14 -311.5; 6000 N !
    PARAMETER TC(BCC_A2,FE:C;0) 298.14 1043; 6000 N !
    PARAMETER TC(BCC_A2,NI:C;0) 298.14 575; 6000 N !
    PARAMETER TC(BCC_A2,CR,FE:VA;0) 298.15 1650; 6000 N !
    PARAMETER TC(BCC_A2,CR,FE:VA;1) 298.15 550; 6000 N !
    PARAMETER TC(BCC_A2,CR,FE:C;0) 298.14 1650; 6000 N !
    PARAMETER TC(BCC_A2,CR,FE:C;1) 298.14 550; 6000 N !
    PARAMETER TC(BCC_A2,CR,NI:VA;0) 298.14 2373; 6000 N !
    PARAMETER TC(BCC_A2,CR,NI:VA;1) 298.14 617; 6000 N !
    PARAMETER TC(BCC_A2,CR,NI:C;0) 298.14 2373; 3000 N !
    PARAMETER TC(BCC_A2,CR,NI:C;1) 298.14 617; 3000 N !
    PARAMETER TC(BCC_A2,CO,FE:VA;0) 298.14 590; 6000 N !
    PARAMETER TC(BCC_A2,CO,NB:VA;0) 298.14 1450; 6000 N !
    PARAMETER TC(BCC_A2,CO,NI:VA;0) 298.14 556; 6000 N !
    PARAMETER TC(BCC_A2,CO,NI:VA;1) 298.14 -288; 6000 N !
    PARAMETER TC(BCC_A2,CO,TI:VA;0) 298.15 -1830; 6000 N ! 
    PARAMETER TC(BCC_A2,CO,TI:VA;1) 298.15 970; 6000 N ! 
    PARAMETER TC(BCC_A2,CO,W:VA;0) 298.14 -3379; 6000 N !
    PARAMETER BMAGN(BCC_A2,CO:VA;0) 298.14 1.35; 6000 N !
    PARAMETER BMAGN(BCC_A2,CR:VA;0) 298.14 -.008; 6000 N !
    PARAMETER BMAGN(BCC_A2,FE:VA;0) 298.14 2.22; 6000 N !
    PARAMETER BMAGN(BCC_A2,NI:VA;0) 298.14 0.85; 6000 N !
    PARAMETER BMAGN(BCC_A2,CR:C;0) 298.14 -.008; 6000 N !
    PARAMETER BMAGN(BCC_A2,FE:C;0) 298.14 2.22; 6000 N !
    PARAMETER BMAGN(BCC_A2,NI:C;0) 298.14 .85; 6000 N !
    PARAMETER BMAGN(BCC_A2,CO,FE:VA;0) 298.14 2.4127; 6000 N !
    PARAMETER BMAGN(BCC_A2,CO,FE:VA;1) 298.14 .2418; 6000 N !
    PARAMETER BMAGN(BCC_A2,CO,NB:VA;0) 298.14 1.35; 6000 N !
    PARAMETER BMAGN(BCC_A2,CO,NI:VA;0) 298.14 .474; 6000 N !
    PARAMETER BMAGN(BCC_A2,CO,W:VA;0) 298.14 -3.146; 6000 N !
    PARAMETER BMAGN(BCC_A2,CR,FE:VA;0) 298.14 -.85; 6000 N !
    PARAMETER BMAGN(BCC_A2,CR,NI:VA;0) 298.14 4; 6000 N !
    PARAMETER BMAGN(BCC_A2,CR,FE:C;0) 298.14 -.85; 6000 N !



PHASE CEMENTITE  %  2 3   1 !
    CONSTITUENT CEMENTITE  :CO,CR,FE%,NI : C :  !
    PARAMETER G(CEMENTITE,CO:C;0) 298.14 -1567+3.963*T+3*GHSERCO#
      +GHSERCC#; 6000 N !
    PARAMETER G(CEMENTITE,CR:C;0) 298.14 -48000-9.2888*T+3*GHSERCR#
      +GHSERCC#; 6000 N !
    PARAMETER G(CEMENTITE,FE:C;0) 298.14 +GFECEM#; 6000 N !
    PARAMETER G(CEMENTITE,NI:C;0) 298.14 +34700-20*T+3*GHSERNI#
      +GHSERCC#; 6000 N !
    PARAMETER L(CEMENTITE,CR,FE:C;0) 298.14 +25278-17.5*T; 6000 N !
    PARAMETER L(CEMENTITE,CR,NI:C;0) 298.14 27898; 6000 N !
    PARAMETER L(CEMENTITE,FE,NI:C;0) 298.14 29400; 6000 N !
    PARAMETER L(CEMENTITE,CR,FE,NI:C;0) 298.14 60000; 6000 N !


PHASE CO3NB  %  2 3 1  !
  CONSTITUENT CO3NB :CO: NB :  !
  PARAMETER G(CO3NB,CO:NB;0) 298.14 -84872+10.86*T+3.0*GHSERCO#
  +GHSERNB#; 6000 N !


PHASE CO7NB2  %  2 7 2  !
  CONSTITUENT CO7NB2 :CO: NB :  !
  PARAMETER G(CO7NB2,CO:NB;0) 298.14 -196884+41.427*T+7.0*GHSERCO#
  +2*GHSERNB#; 6000 N !


PHASE CO16NB9  %  2 16 9  !
  CONSTITUENT CO16NB9 :CO: NB :  !
  PARAMETER G(CO16NB9,CO:NB;0) 298.14 -687800+106.4*T+16.0*GHSERCO#
  +9*GHSERNB#; 6000 N !


PHASE CO3W  %  2 3   1 !
   CONSTITUENT CO3W  :CO,NI : W :  !
   PARAMETER G(CO3W,CO:W;0) 298.14 -16126+.147*T+3*GHSERCO#
     +GHSERWW#; 6000 N !
   PARAMETER G(CO3W,NI:W;0) 298.14 -3181-3*T+3*GHSERNI#
     +GHSERWW#; 6000 N !


PHASE C14 %  2 2 1 !
  CONSTITUENT C14  :CR,CO,NB,NI,TA,ZR : CR,CO,NB,NI,TA,ZR :  !
  PARAMETER G(C14,CR:CR;0) 298.14 15000+3*GHSERCR#; 6000 N !
  PARAMETER G(C14,CO:CO;0) 298.14 15000+2*GHSERCO#+GCOBCC#; 6000 N !
  PARAMETER G(C14,NB:NB;0) 298.15 15000+3*GHSERNB#; 6000 N !
  PARAMETER G(C14,NI:NI;0) 298.14 15000+3*GHSERNI#; 6000 N !
  PARAMETER G(C14,TA:TA;0) 298.14 15000+GHSERTA#+2*GFCCTA#; 6000 N !
  PARAMETER G(C14,ZR:ZR;0) 298.15 15000+3*GZRHCP#; 6000 N !
  PARAMETER G(C14,CR:NI;0) 298.14 15000+GHSERNI#+2*GHSERCR#; 6000 N !
  PARAMETER G(C14,NI:CR;0) 298.14 15000+2*GHSERNI#+GHSERCR#; 6000 N !
  PARAMETER G(C14,CR:TA;0) 298.14 -9750-7.95*T+GHSERTA#
   +2*GHSERCR#; 6000 N !
  PARAMETER G(C14,TA:CR;0) 298.14 39750+7.95*T+2*GHSERTA#
   +GHSERCR#; 6000 N !
  PARAMETER G(C14,CO:TA;0) 298.14 -106656+10.692*T+GHSERTA#
      +2*GHSERCO#; 6000 N !
  PARAMETER G(C14,TA:CO;0) 298.14 136656-10.692*T+2*GFCCTA# 
      +GCOBCC#; 6000 N !
  PARAMETER G(C14,TA:NI;0) 298.14 -80019+GHSERNI#+2*GHSERTA#; 6000 N !
  PARAMETER G(C14,NI:TA;0) 298.14 130019+2*GHSERNI#+GHSERTA#; 6000 N !
  PARAMETER G(C14,CR:NB;0) 298.15 42667.55-31.01111*T+5*T*LN(T)
   +2*GHSERNB#+GHSERCR#; 6000 N !
  PARAMETER G(C14,NB:CR;0) 298.15 -12667.55+31.01111*T-5*T*LN(T)
   +2*GHSERCR#+GHSERNB#; 6000 N !
  PARAMETER G(C14,NI:ZR;0) 298.15 -103571.1+GZRHCP#+2*GHSERNI#; 6000 N !
  PARAMETER G(C14,ZR:NI;0) 298.15 133571.1+2*GZRHCP#+GHSERNI#; 6000 N !
  PARAMETER G(C14,CR:ZR;0) 298.15 -8114-11.652*T+GZRHCP#+2*GHSERCR#; 6000 N !
  PARAMETER G(C14,ZR:CR;0) 298.15 38114+11.652*T+2*GZRHCP#+GHSERCR#; 6000 N !
  PARAMETER L(C14,CR,TA:CR;0) 298.14 +236700-71.1*T; 6000 N !
  PARAMETER L(C14,CR,TA:TA;0) 298.14 +236700-71.1*T; 6000 N !
  PARAMETER L(C14,CR:CR,TA;0) 298.14 +81000-26.4*T; 6000 N !
  PARAMETER L(C14,TA:CR,TA;0) 298.14 +81000-26.4*T; 6000 N !
  PARAMETER L(C14,NI:CR,TA;0) 298.14 -43197; 6000 N !
  PARAMETER L(C14,CR:NI,TA;0) 298.14 -24612; 6000 N !
  PARAMETER L(C14,CO,CO:TA;0) 298.14 +74326; 6000 N !
  PARAMETER L(C14,CO,TA:TA;0) 298.14 -251459+78.752*T; 6000 N !
  PARAMETER L(C14,CR:CR,NB;0) 298.15 +90673.45; 6000 N !
  PARAMETER L(C14,NB:CR,NB;0) 298.15 +90673.45; 6000 N !
  PARAMETER L(C14,CR,NB:CR;0) 298.15 +18511.36; 6000 N !
  PARAMETER L(C14,CR,NB:NB;0) 298.15 +18511.36; 6000 N !
  PARAMETER L(C14,NI,ZR:NI;0) 298.15 15000; 6000 N !
  PARAMETER L(C14,NI,ZR:ZR;0) 298.15 15000; 6000 N !
  PARAMETER L(C14,NI:NI,ZR;0) 298.15 15000; 6000 N !
  PARAMETER L(C14,ZR:NI,ZR;0) 298.15 15000; 6000 N !
  PARAMETER L(C14,CR,ZR:CR;0) 298.15 52300; 6000 N !
  PARAMETER L(C14,CR,ZR:ZR;0) 298.15 52300; 6000 N !
  PARAMETER L(C14,CR:CR,ZR;0) 298.15 26060; 6000 N !
  PARAMETER L(C14,ZR:CR,ZR;0) 298.15 26060; 6000 N !


PHASE C15 %  2 2 1 !
  CONSTITUENT C15  :CR,CO,NB,NI,TA,TI,ZR : CR,CO,NB,NI,TA,TI,ZR :  !
  PARAMETER G(C15,CR:CR;0) 298.14 15000+3*GHSERCR#; 6000 N !
  PARAMETER G(C15,CO:CO;0) 298.14 15000+2*GHSERCO#+GCOBCC#; 6000 N !
  PARAMETER G(C15,NB:NB;0) 298.15 15000+3*GHSERNB#; 6000 N !
  PARAMETER G(C15,NI:NI;0) 298.14 15000+3*GHSERNI#; 6000 N !
  PARAMETER G(C15,TA:TA;0) 298.14 15000+GHSERTA#+2*GFCCTA#; 6000 N !
  PARAMETER G(C15,TI:TI;0) 298.15 15000+3*GHSERTI#; 6000 N ! 
  PARAMETER G(C15,ZR:ZR;0) 298.15 +3*GHSERZR+15000; 6000 N! 
  PARAMETER G(C15,CR:TA;0) 298.14 -26850+0.69*T+GHSERTA#
   +2*GHSERCR#; 6000 N !
  PARAMETER G(C15,TA:CR;0) 298.14 56850-0.69*T+2*GHSERTA#
   +GHSERCR#; 6000 N !
  PARAMETER G(C15,CR:NI;0) 298.14 15000+GHSERNI#+2*GHSERCR#; 6000 N !
  PARAMETER G(C15,NI:CR;0) 298.14 15000+2*GHSERNI#+GHSERCR#; 6000 N !
  PARAMETER G(C15,TA:NI;0) 298.14 -74274+GHSERNI#+2*GHSERTA#; 6000 N !
  PARAMETER G(C15,NI:TA;0) 298.14 124274+2*GHSERNI#+GHSERTA#; 6000 N !
  PARAMETER G(C15,CO:TA;0) 298.14 -106640+9.621*T+GHSERTA#
    +2*GHSERCO#; 6000 N !
  PARAMETER G(C15,TA:CO;0) 298.14 136640-9.621*T+2*GFCCTA# 
    +GCOBCC#; 6000 N !
  PARAMETER G(C15,CR:NB;0) 298.15 48087.03-34.01111*T+5*T*LN(T)
   +2*GHSERNB#+GHSERCR#; 6000 N !
  PARAMETER G(C15,NB:CR;0) 298.15 -18087.03+34.01111*T-5*T*LN(T)
   +2*GHSERCR#+GHSERNB#; 6000 N !
  PARAMETER G(C15,ZR:CO;0) 298.15 +2*GHSERZR+GHSERCO-3*GCO2ZR+30000; 6000 N! 
  PARAMETER G(C15,CO:ZR;0) 298.15 +2*GHSERCO+GHSERZR+3*GCO2ZR; 6000 N!
  PARAMETER G(C15,NI:ZR;0) 298.15 -127742.1+GZRHCP#+2*GHSERNI#; 6000 N !
  PARAMETER G(C15,ZR:NI;0) 298.15 -97742.1+2*GZRHCP#+GHSERNI#; 6000 N !
  PARAMETER G(C15,CR:ZR;0) 298.15 -87273+29.915*T+GZRHCP#+2*GHSERCR#; 6000 N !
  PARAMETER G(C15,ZR:CR;0) 298.15 387273-29.915*T+2*GZRHCP#+GHSERCR#; 6000 N !
  PARAMETER G(C15,TI:CO;0) 298.15 +125000-31.496*T+30000 
    +GHSERCO#+2*GHSERTI#; 6000 N ! 
  PARAMETER G(C15,CO:TI;0) 298.15 -125000+31.496*T+2*GHSERCO# 
    +GHSERTI#; 6000 N ! 
  PARAMETER G(C15,CR:TI;0) 298.15 -1780-6.3*T+2*GHSERCR#
   +GHSERTI#; 6000 N !
  PARAMETER G(C15,TI:CR;0) 298.15 31780+6.3*T+2*GHSERTI#
   +GHSERCR#; 6000 N !
  PARAMETER L(C15,CR,TA:CR;0) 298.14 +270000-90.0*T; 6000 N !
  PARAMETER L(C15,CR,TA:TA;0) 298.14 +270000-90.0*T; 6000 N !
  PARAMETER L(C15,CR:CR,TA;0) 298.14 +117000-39.0*T; 6000 N !
  PARAMETER L(C15,TA:CR,TA;0) 298.14 +117000-39.0*T; 6000 N !
  PARAMETER L(C15,CO:CO,TA;0) 298.14 -47815+21.981*T; 6000 N !
  PARAMETER L(C15,CR,NB:CR;0) 298.15 +17565.57; 6000 N !
  PARAMETER L(C15,CR,NB:NB;0) 298.15 +17565.57; 6000 N !
  PARAMETER L(C15,CR:CR,NB;0) 298.15 +83366.02; 6000 N !
  PARAMETER L(C15,NB:CR,NB;0) 298.15 +83366.02; 6000 N !
  PARAMETER L(C15,CO,ZR:ZR;0) 298.15 +13874; 6000 N! 
  PARAMETER L(C15,CO:CO,ZR;0) 298.15 -1977; 6000 N! 
  PARAMETER L(C15,CO,ZR:ZR;1) 298.15 -26434; 6000 N! 
  PARAMETER L(C15,CO:CO,ZR;1) 298.15 +25887; 6000 N! 
  PARAMETER L(C15,NI,ZR:NI;0) 298.15 20000; 6000 N !
  PARAMETER L(C15,NI,ZR:ZR;0) 298.15 20000; 6000 N !
  PARAMETER L(C15,NI:NI,ZR;0) 298.15 20000; 6000 N !
  PARAMETER L(C15,ZR:NI,ZR;0) 298.15 20000; 6000 N !
  PARAMETER L(C15,CR,ZR:CR;0) 298.15 70328; 6000 N !
  PARAMETER L(C15,CR,ZR:ZR;0) 298.15 70328; 6000 N !
  PARAMETER L(C15,CR:CR,ZR;0) 298.15 62910; 6000 N !
  PARAMETER L(C15,ZR:CR,ZR;0) 298.15 62910; 6000 N !
  PARAMETER L(C15,CR,TI:CR;0) 298.15 10800+27*T; 6000 N !
  PARAMETER L(C15,CR,TI:TI;0) 298.15 10800+27*T; 6000 N !
  PARAMETER L(C15,CR:CR,TI;0) 298.15 50000; 6000 N !
  PARAMETER L(C15,TI:CR,TI;0) 298.15 50000; 6000 N !



PHASE C36 %  2 2 1 !
  CONSTITUENT C36  :CO,CR,TA,TI :CO,CR,TA,TI :  !
  PARAMETER G(C36,CO:CO;0) 298.14 15000+2*GHSERCO#+GCOBCC#; 6000 N !
  PARAMETER G(C36,CO:TA;0) 298.14 -98840+8.822*T+GHSERTA#
   +2*GHSERCO#; 6000 N !
  PARAMETER G(C36,TA:TA;0) 298.14 15000+GHSERTA#+2*GFCCTA#; 6000 N !
  PARAMETER G(C36,TI:TI;0) 298.15 15000+3*GHSERTI#; 6000 N ! 
  PARAMETER G(C36,TA:CO;0) 298.14 128840-8.822*T+2*GFCCTA# 
   +GCOBCC#; 6000 N !
  PARAMETER G(C36,CR:ZR;0) 298.15 -70026+20.901*T+GZRHCP#+2*GHSERCR#; 6000 N !