$************************************************************************
$ Database file written 2010-11-29
$ From database: PURE
$************************************************************************
$ELEMENT NAME STABLE_ELEM_REFERENCE    MASS      H298-H0     S298    !
$************************************************************************
$
 ELEMENT /-   ELECTRON_GAS         0.0000E+00  0.0000E+00  0.0000E+00!
 ELEMENT VA   VACUUM               0.0000E+00  0.0000E+00  0.0000E+00!
 ELEMENT AL   FCC_A1               2.6982E+01  4.5773E+03  2.8322E+01!
 ELEMENT FE   BCC_A2               5.5847E+01  4.4890E+03  2.7280E+01!
 ELEMENT P    RED_P                3.0974E+01  0.0000E+00  0.0000E+00!
 
 SPECIES AL1                         AL!
 SPECIES AL2                         AL2! 
 SPECIES P2                          P2!
 SPECIES P4                          P4!
$
$************************************************************************
$ PARAMETERS and FUNCTIONS for each elements (in various phases):
$************************************************************************
$
 FUNCTION GHSERAL 2.98150E+02
   -7976.15+137.093038*T-24.3671976*T*LN(T)
   -0.001884662*T**2-8.77664E-07*T**3+74092*T**(-1); 7.00000E+02 Y
   -11276.24+223.048446*T-38.5844296*T*LN(T)+.018531982*T**2
   -5.764227E-06*T**3+74092*T**(-1); 9.33470E+02 Y
   -11278.378+188.684153*T-31.748192*T*LN(T)
                                  -1.230524E+28*T**(-9); 2.90000E+03  N !

 FUNCTION GHSERFE 2.98150E+02
   +1225.7+124.134*T-23.5143*T*LN(T)
   -0.00439752*T**2-5.8927E-08*T**3+77359*T**(-1); 1.81100E+03 Y
   -25383.581+299.31255*T-46*T*LN(T)+2.29603E+31*T**(-9); 6.00000E+03 N !

 FUNCTION GHSERPP 2.50000E+02
   -43821.799+1026.69389*T-178.426*T*LN(T)
   +0.290708*T**2-1.04022667E-04*T**3+1632695*T**(-1); 3.17300E+02 Y
   -9587.448+152.341487*T-28.7335301*T*LN(T)+.001715669*T**2
   -2.2829E-07*T**3+172966*T**(-1); 1.00000E+03 Y
                   -8093.075+135.876831*T-26.326*T*LN(T); 3.00000E+03 N !

 FUNCTION GPPRED 2.50000E+02
  -25976.559+148.672002*T-25.55*T*LN(T)+.0034121*T**2
  -2.418867E-06*T**3+160095*T**(-1); 5.00000E+02 Y
  -21723.721+77.671737*T-14.368*T*LN(T)-.00957685*T**2+3.93917E-07*T**3
  -141375*T**(-1); 8.52350E+02 Y
  -119408.413+1026.02962*T-149.449556*T*LN(T)+.067272364*T**2
  -6.651929E-06*T**3+12495943*T**(-1); 1.50000E+03 Y
                     -16431.044+17.96235*T+GHSERPP#; 3.00000E+03 N REF0 !

 FUNCTION UN_ASS 298.15 0; 300 N !
 FUNCTION W1     2.98150E+02  +7150.47;           6.00000E+03 N !
 FUNCTION L0BCC  2.98150E+02  -23589.57+7.9972*T; 6.00000E+03 N !
 FUNCTION L1BCC  2.98150E+02  368.15;             6.00000E+03 N !
 FUNCTION ALFEW1 2.98150E+02  +7150.47;           6.00000E+03 N !
$************************************************************************
$
 TYPE_DEFINITION % SEQ *!
 DEFINE_SYSTEM_DEFAULT ELEMENT 2 !
 DEFAULT_COMMAND DEF_SYS_ELEMENT VA /- !
$
$************************************************************************
$ PHASE  NAME   Data-Type   Subl-No   Subl-Sites !
$  and CONSTITUENT : PHASE CONSTITUENT DEFINITIONS : !
$************************************************************************
$
 PHASE GAS:G %  1  1.0  !
   CONSTITUENT GAS:G :AL,FE,P,P2,P4 :  !
   PARAMETER G(GAS,AL;0) 2.98150E+02
     +323947.581-25.038657*T-20.858999*T*LN(T)+4.56650015E-05*T**2
     -3.94199983E-09*T**3-24275.5*T**(-1)+RTLNP#; 4.30000E+03 Y
     +342017.225-53.943155*T-17.789101*T*LN(T)+6.8219995E-05*T**2
     -1.91111667E-08*T**3-14782200*T**(-1)+RTLNP#;  8.20000E+03  Y
     +542396.021-411.104876*T+22.241899*T*LN(T)-.00349619005*T**2
     +4.04909983E-08*T**3-2.03669505E+08*T**(-1)+RTLNP#; 
                                                     1.00000E+04 N REF0 !
   PARAMETER G(GAS,FE;0) 2.98150E+02
     +405563.032+35.645881*T-32.826099*T*LN(T)+.00908265*T**2
     -1.34845672E-06*T**3+108791.5*T**(-1)+RTLNP#; 9.00000E+02 Y
     +414134.499-53.730388*T-19.8428*T*LN(T)+6.95945E-05*T**2
     -1.30683002E-07*T**3-976410*T**(-1)+RTLNP#; 2.40000E+03 Y
     +410389.926-49.217832*T-20.125099*T*LN(T)-5.6655E-04*T**2
     -5.29026683E-08*T**3+887590*T**(-1)+RTLNP#; 5.50000E+03 Y
     +521856.011-375.037899*T+18.708401*T*LN(T)-.0063445*T**2
     +1.03865498E-07*T**3-55488000*T**(-1)+RTLNP#;
                                                     1.00000E+04 N REF0 !
   PARAMETER G(GAS,P;0) 2.98150E+02
     +310152.027-21.290539*T-21.188601*T*LN(T)+3.9907801E-04*T**2
     -6.46718333E-08*T**3+9337.95*T**(-1)+RTLNP#; 1.90000E+03 Y
     +332461.663-123.402048*T-8.27475*T*LN(T)-.00254073505*T**2
     +2.7788665E-08*T**3-6752450*T**(-1)+RTLNP#; 3.90000E+03 Y
     +295561.741-60.913756*T-14.9205*T*LN(T)-.00269134505*T**2
     +7.3756335E-08*T**3+20828800*T**(-1)+RTLNP#; 7.00000E+03 Y
     +105621.682+337.649927*T-60.522099*T*LN(T)+.0021712049*T**2
     -2.32968317E-08*T**3+1.69282495E+08*T**(-1)+RTLNP#;
                                                     1.00000E+04 N REF0 !
   PARAMETER G(GAS,P2;0) 2.98150E+02
     +133357.675+.291693112*T-32.028*T*LN(T)-.0046707648*T**2
     +7.28558317E-07*T**3+106826.5*T**(-1)+RTLNP#; 9.00000E+02 Y
     +128832.638+49.423298*T-39.2309*T*LN(T)+7.1561E-04*T**2
     -6.82824983E-08*T**3+666445*T**(-1)+RTLNP#; 3.50000E+03 Y
     +164091.426-27.149742*T-30.655701*T*LN(T)+3.49903015E-04*T**2
     -1.01328832E-07*T**3-21312200*T**(-1)+RTLNP#;
                                                     6.00000E+03 N REF0 !
   PARAMETER G(GAS,P4;0) 2.98150E+02
     +31689.1999+247.086342*T-77.332397*T*LN(T)-.00462070015*T**2
     +6.768167E-07*T**3+563395*T**(-1)+RTLNP#; 1.10000E+03 Y
     +28520.5008+285.91093*T-83.111504*T*LN(T)-6.05715E-06*T**2
     +1.99865E-10*T**3+890230*T**(-1)+RTLNP#;
                                                     6.00000E+03 N REF0 !

 PHASE LIQUID  %  1  1.0  !
   CONSTITUENT LIQUID  :AL,FE,P :  !
   PARAMETER G(LIQUID,AL;0) 2.98150E+02
     +11005.029-11.841867*T+GHSERAL#+7.9337E-20*T**7; 7.00000E+02 Y
     +11005.03-11.841867*T+GHSERAL#+7.9337E-20*T**7; 9.33470E+02 Y
            -795.996+177.430178*T-31.748192*T*LN(T); 2.90000E+03 N REF0 !
   PARAMETER G(LIQUID,FE;0) 2.98150E+02
     +12040.17-6.55843*T+GHSERFE#-3.67516E-21*T**7; 1.81100E+03 Y
                     -10838.83+291.302*T-46*T*LN(T); 6.00000E+03 N REF0 !
   PARAMETER G(LIQUID,P;0) 2.50000E+02
     -26316.111+434.930931*T-70.7440584*T*LN(T)-.002898936*T**2
     +3.9049371E-05*T**3+1141147*T**(-1); 3.17300E+02 Y
     -7232.449+133.291873*T-26.326*T*LN(T); 1.00000E+03 Y
                       +860.626-2.584958*T+GHSERPP#; 3.00000E+03 N REF0 !

   PARAMETER G(LIQUID,FE,P;0) 2.98150E+02
                                  -220300+66.36*T; 6.00000E+03 N REF215 !
   PARAMETER G(LIQUID,FE,P;1) 2.98150E+02
                                           -24904; 6.00000E+03 N REF215 !
   PARAMETER G(LIQUID,FE,P;2) 2.98150E+02
                                    +69825-25.9*T; 6.00000E+03 N REF215 !
$
$************************************************************************
$ INPUT EXAMPLES
$ TYPE_DEFINITION (1 symbol) GES A_P_D ORDER MAGNETIC 
$                                      antiferromagnetic_factor f-value !
$
$ TYPE_DEFINITION (1 symbol) GES A_P_D BCC MAGNETIC -1.0 0.4 !
$   PHASE BCC %(1 symbol) 1 1 !
$    COMSTITUENT ORDER : A,B : !
$    PAR G (BCC, A,B;0) 298.15 -10000; 6000 N !
$    PAR TC (BCC, A,B;0) 298.15 -100; 6000 N !
$    PAR BMAGN (BCC, A,B;0) 298.15 -1.2; 6000 N !
$ TYPE_DEFINITION (1 symbol) GES A_P_D (not BCC) MAGNETIC -3.0 0.28 !
$
$ Here, TC [K] is Curie's temperature or Neel's temperature.
$ And, BMAGN is the Bohr magneton normalized magnetic moment.
$************************************************************************
$
 TYPE_DEFINITION & GES A_P_D BCC_A2 MAGNETIC  -1.0    4.00000E-01 !
$
$************************************************************************
$
 PHASE BCC_A2  %&  2  1  3 !
   CONSTITUENT BCC_A2  :AL,FE%,P : VA% :  !
   
   PARAMETER G(BCC_A2,AL:VA;0) 2.98150E+02
                            +10083-4.813*T+GHSERAL#; 2.90000E+03 N REF0 !
   PARAMETER G(BCC_A2,FE:VA;0) 2.98150E+02
                                          +GHSERFE#; 6.00000E+03 N REF0 !
   PARAMETER TC(BCC_A2,FE:VA;0) 2.98150E+02 1043; 6.00000E+03 N REF0 !
   PARAMETER BMAGN(BCC_A2,FE:VA;0) 2.98150E+02 2.22; 6.00000E+03 N REF0 !
   
   PARAMETER G(BCC_A2,P:VA;0) 2.50000E+02
     +18792.241+135.412002*T-25.55*T*LN(T)+.0034121*T**2
     -2.418867E-06*T**3+160095*T**(-1); 5.00000E+02 Y
     +23045.079+64.411737*T-14.368*T*LN(T)-.00957685*T**2
     +3.93917E-07*T**3-141375*T**(-1); 8.52350E+02 Y
     -74639.613+1012.76962*T-149.449556*T*LN(T)+.067272364*T**2
     -6.651929E-06*T**3+12495943*T**(-1); 1.50000E+03 Y
                      +28337.756+4.70235*T+GHSERPP#; 3.00000E+03 N REF0 !
   PARAMETER G(BCC_A2,AL,FE:VA;0) 2.98150E+02
                                    +4*L0BCC#-4*W1#; 6.00000E+03 N REF0 !
   PARAMETER G(BCC_A2,AL,FE:VA;1) 2.98150E+02
                                          +8*L1BCC#; 6.00000E+03 N REF0 !
   PARAMETER TC(BCC_A2,AL,FE:VA;1) 2.98150E+02 504;  6.00000E+03 N REF0 !
   
   PARAMETER G(BCC_A2,FE,P:VA;0) 2.98150E+02
                                 -161978+19.807*T; 6.00000E+03 N REF215 !
$
$************************************************************************
$ INPUT EXAMPLES
$ TYPE_DEFINITION (1 symbol) GES A_P_D ORDER DIS_PART DISORDER(BCC) ,,, !
$   PHASE ORDER %(1 symbol) 3 1 1 1 !
$    COMSTITUENT ORDER : A,B,C : A,B,C : : A,B,C : !
$   PAR G (ORDER, A:A:A;0) 298.15  +0.0;  6000 N !
$
$ Element% means the element that is the main component in the sublattice
$************************************************************************
$ THIS PHASE HAS A DISORDERED CONTRIBUTION FROM BCC_A2                  
$
 TYPE_DEFINITION ) GES AMEND_PHASE_DESCRIPTION BCC_B2 DIS_PART BCC_A2,,,!

 PHASE BCC_B2  %)  3  0.5  0.5   3 !
   CONSTITUENT BCC_B2  :AL%,FE%,P : AL,FE,P : VA : !
   PARAMETER G(BCC_B2,AL:AL:VA;0) 298.15 +0.0; 6000 N !
   PARAMETER G(BCC_B2,FE:AL:VA;0) 2.98150E+02 
                                         -2*ALFEW1#; 6.00000E+03 N REF0 !
   PARAMETER G(BCC_B2,AL:FE:VA;0) 2.98150E+02
                                         -2*ALFEW1#; 6.00000E+03 N REF0 !
   PARAMETER G(BCC_B2,FE:FE:VA;0) 298.15 +0.0; 6000 N !
   
   $ The next line adds 0.0 to all combinations to avoid errors (bad)
   PARAMETER G(BCC_B2,*:*:VA;0) 298.15 +0.0; 6000 N !
   $PARAMETER TC(BCC_B2,*:*:VA;0) 298.15 +0.0; 6000 N !
   $PARAMETER BMAGN(BCC_B2,*:*:VA;0) 298.15 +0.0; 6000 N !
$
$************************************************************************
$ INPUT EXAMPLES
$ TYPE_DEFINITION (1 symbol) GES A_P_D ORDER MAGNETIC 
$                                      antiferromagnetic_factor f-value !
$
$ TYPE_DEFINITION (1 symbol) GES A_P_D BCC MAGNETIC -1.0 0.4 !
$   PHASE BCC %(1 symbol) 1 1 !
$    COMSTITUENT ORDER : A,B : !
$    PAR G (BCC, A,B;0) 298.15 -10000; 6000 N !
$    PAR TC (BCC, A,B;0) 298.15 -100; 6000 N !
$    PAR BMAGN (BCC, A,B;0) 298.15 -1.2; 6000 N !
$ TYPE_DEFINITION (1 symbol) GES A_P_D (not BCC) MAGNETIC -3.0 0.28 !
$
$ Here, TC [K] is Curie's temperature or Neel's temperature.
$ And, BMAGN is the Bohr magneton normalized magnetic moment.
$************************************************************************
$
 TYPE_DEFINITION ( GES A_P_D FCC_A1 MAGNETIC -3.0 2.80000E-01 !
 
 PHASE FCC_A1  %(  2 1 1 !
   CONSTITUENT FCC_A1 :AL,FE,P : VA : !
   PARAMETER G(FCC_A1,AL:VA;0) 2.98150E+02 
                                          +GHSERAL#; 2.90000E+03 N REF0 !
   PARAMETER G(FCC_A1,FE:VA;0) 2.98150E+02
     -1462.4+8.282*T-1.15*T*LN(T)+6.4E-04*T**2+GHSERFE#; 1.81100E+03 Y
     -1713.815+.94001*T+GHSERFE#+4.9251E+30*T**(-9); 6.00000E+03 N REF0 !
   PARAMETER TC(FCC_A1,FE:VA;0) 2.98150E+02 -201; 6.00000E+03 N REF0 !
   PARAMETER BMAGN(FCC_A1,FE:VA;0) 2.98150E+02 -2.1; 6.00000E+03 N REF0 !
   
   PARAMETER G(FCC_A1,P:VA;0) 2.50000E+02
     +10842.441+135.534002*T-25.55*T*LN(T)+.0034121*T**2
     -2.418867E-06*T**3+160095*T**(-1); 5.00000E+02 Y
     +15095.279+64.533737*T-14.368*T*LN(T)
     -.00957685*T**2+3.93917E-07*T**3-141375*T**(-1); 8.52350E+02 Y
     -82589.413+1012.89162*T-149.449556*T*LN(T)+.067272364*T**2
     -6.651929E-06*T**3+12495943*T**(-1); 1.50000E+03 Y
                      +20387.956+4.82435*T+GHSERPP#; 3.00000E+03 N REF0 !
   PARAMETER G(FCC_A1,AL,FE:VA;0) 2.98150E+02
                                 -76066.1+18.6758*T; 6.00000E+03 N REF0 !
   PARAMETER G(FCC_A1,AL,FE:VA;1) 2.98150E+02
                                  +21167.4+1.3398*T; 6.00000E+03 N REF0 !
   PARAMETER G(FCC_A1,FE,P:VA;0)  2.98150E+02
                                -144097+19.2414*T; 6.00000E+03 N REF215 !

 PHASE RED_P  %  1  1.0  !
   CONSTITUENT RED_P  :P :  !
   PARAMETER G(RED_P,P;0)  2.50000E+02
     -25976.559+148.672002*T-25.55*T*LN(T)+.0034121*T**2
     -2.418867E-06*T**3+160095*T**(-1); 5.00000E+02 Y
     -21723.721+77.671737*T-14.368*T*LN(T)
     -0.00957685*T**2+3.93917E-07*T**3-141375*T**(-1); 8.52350E+02 Y
     -119408.413+1026.02962*T-149.449556*T*LN(T)+.067272364*T**2
     -6.651929E-06*T**3+12495943*T**(-1); 1.50000E+03 Y
                     -16431.044+17.96235*T+GHSERPP#; 3.00000E+03 N REF0 !

 PHASE WHITE_P  %  1  1.0  !
   CONSTITUENT WHITE_P  :P :  !
   PARAMETER G(WHITE_P,P;0) 2.50000E+02 +GHSERPP#; 3.00000E+03 N REF0 !

 PHASE FE2P1  %  2 2   1 !
   CONSTITUENT FE2P1  :FE : P :  !
   PARAMETER G(FE2P1,FE:P;0) 2.98150E+02
              -150098+19.661*T+2*GHSERFE#+GPPRED#; 6.00000E+03 N REF215 !

 PHASE FE3P1  %  2 3   1 !
   CONSTITUENT FE3P1  :FE : P :  !
   PARAMETER G(FE3P1,FE:P;0) 2.98150E+02
                -167998+27.8*T+3*GHSERFE#+GPPRED#; 6.00000E+03 N REF215 !


 PHASE FEP    %  2 1 1 !
   CONSTITUENT FEP  :FE : P :  !
   PARAMETER G(FEP,FE:P;0) 2.98150E+02
                  -110023+11.4*T+GHSERFE#+GPPRED#; 6.00000E+03 N REF215 !
   PARAMETER G(LIQUID,AL,FE;0) 2.98150E+02
                                 -91976.5+22.1314*T; 6.00000E+03 N REF0 !
   PARAMETER G(LIQUID,AL,FE;1) 2.98150E+02
                                  -5672.58+4.8728*T; 6.00000E+03 N REF0 !
   PARAMETER G(LIQUID,AL,FE;2) 2.98150E+02
                                              121.9; 6.00000E+03 N REF0 !

 PHASE AL13FE4 %  3 .6275   .235   .1375 !
   CONSTITUENT AL13FE4  :AL : FE : AL,VA :  !
   PARAMETER G(AL13FE4,AL:FE:AL;0) 2.98150E+02
        -30714.4+7.44*T+.765*GHSERAL#+.235*GHSERFE#; 6.00000E+03 N REF0 !
   PARAMETER G(AL13FE4,AL:FE:VA;0) 2.98150E+02
     -27781.3+7.2566*T+.6275*GHSERAL#+.235*GHSERFE#; 6.00000E+03 N REF0 !


 PHASE AL2FE   %  2 2 1 !
   CONSTITUENT AL2FE  :AL : FE :  !
   PARAMETER G(AL2FE,AL:FE;0) 2.98150E+02
             -98096.9+18.7503*T+2*GHSERAL#+GHSERFE#; 6.00000E+03 N REF0 !

 PHASE AL5FE2  %  2 5 2 !
   CONSTITUENT AL5FE2  :AL : FE :  !
   PARAMETER G(AL5FE2,AL:FE;0) 2.98150E+02
           -228576+48.99503*T+5*GHSERAL#+2*GHSERFE#; 6.00000E+03 N REF0 !


 PHASE AL5FE4  %  1  1.0  !
   CONSTITUENT AL5FE4  :AL,FE :  !
   PARAMETER G(AL5FE4,AL;0) 2.98150E+02
                          +12178.9-4.813*T+GHSERAL#; 6.00000E+03 N REF0 !
   PARAMETER G(AL5FE4,FE;0) 2.98150E+02
                                  +5009.03+GHSERFE#; 6.00000E+03 N REF0 !
   PARAMETER G(AL5FE4,AL,FE;0) 2.98150E+02
                                  -131649+29.4833*T; 6.00000E+03 N REF0 !
   PARAMETER G(AL5FE4,AL,FE;1) 2.98150E+02 
                                           -18619.5; 6.00000E+03 N REF0 !
   PARAMETER G(LIQUID,AL,P;0) 2.98150E+02
                                       7322-8.368*T; 6.00000E+03 N REF0 !

 PHASE AL1P1  %  2 1 1 !
   CONSTITUENT AL1P1  :AL : P :  !
   PARAMETER G(AL1P1,AL:P;0) 2.98150E+02
    -178777.759+223.610537*T-40.1664*T*LN(T)-.003138*T**2; 
                                                     6.00000E+03 N REF0 !
$
$************************************************************************
 LIST_OF_REFERENCES
 NUMBER  SOURCE
 REF0   'none'
 REF215   'P.Gustafson, Inst. Met. Res. (IM-2549, 1990); C-P, FE-P, C-FE-P'
  ! 
$************************************************************************
