
$ Database file written 2015-12-18
$ From database: USER                    
 ELEMENT /-   ELECTRON_GAS              0.0000E+00  0.0000E+00  0.0000E+00!
 ELEMENT VA   VACUUM                    0.0000E+00  0.0000E+00  0.0000E+00!
 ELEMENT AL   FCC_A1                    2.6982E+01  4.5773E+03  2.8322E+01!
 ELEMENT NI   FCC_A1                    5.8690E+01  4.7870E+03  2.9796E+01!
 ELEMENT PT   FCC_A1                    1.9508E+02  5.7237E+03  4.1631E+01!
 
 
 FUNCTION GALNIL10  298.15 -67000+11*T; 6000 N !
 FUNCTION GHSERAL   298.15 -7976.15+137.093038*T-24.3671976*T*LN(T)
     -.001884662*T**2-8.77664E-07*T**3+74092*T**(-1); 700 Y
      -11276.24+223.048446*T-38.5844296*T*LN(T)+.018531982*T**2
     -5.764227E-06*T**3+74092*T**(-1); 933.47 Y
      -11278.378+188.684153*T-31.748192*T*LN(T)-1.230524E+28*T**(-9); 2900 N 
     !
 FUNCTION GHSERNI   298.15 -5179.159+117.854*T-22.096*T*LN(T)-.0048407*T**2; 
     1728 Y
      -27840.655+279.135*T-43.1*T*LN(T)+1.12754E+31*T**(-9); 3000 N !
 FUNCTION ALNI3     298.15 +3*U1ALNI#; 6000 N !
 FUNCTION VT62      298.15 +2014.654; 6000 N !
 FUNCTION VT63      298.15 -3; 6000 N !
 FUNCTION GALNI2PT  298.15 +VT42#+VT43#*T; 6000 N !
 FUNCTION GHSERPT   298.15 -7595.631+124.388275*T-24.5526*T*LN(T)
     -.00248297*T**2-2.0138E-08*T**3+7974*T**(-1); 1300 Y
      -9253.174+161.529615*T-30.2527*T*LN(T)+.002321665*T**2
     -6.56946E-07*T**3-272106*T**(-1); 2041.50 Y
      -222048.216+1019.35892*T-136.192996*T*LN(T)+.020454938*T**2
     -7.59259E-07*T**3+71539020*T**(-1); 4000 N !
 FUNCTION NI3PT     298.15 +GNI3PT1#+3*MOD#; 6000 N !
 FUNCTION VT48      298.15 +6013.702; 6000 N !
 FUNCTION VT68      298.15 -6; 6000 N !
 FUNCTION GNIPTL10  298.15 -14250; 6000 N !
 FUNCTION VT49      298.15 +0.0; 6000 N !
 FUNCTION VT69      298.15 +0.0; 6000 N !
 FUNCTION GALPTL10  298.15 -92000+10*T; 6000 N !
 FUNCTION GALNIPT2  298.15 +VT40#+VT41#*T; 6000 N !
 FUNCTION ALPT3     298.15 +VAP74#+VAP75#*T; 6000 N !
 FUNCTION VT46      298.15 +4118.3358; 6000 N !
 FUNCTION VT47      298.15 +0.0; 6000 N !
 FUNCTION NIPT3     298.15 +GNI1PT3#+3*MOD#; 6000 N !
 FUNCTION VT38      298.15 +2820.1634; 6000 N !
 FUNCTION VT74      298.15 +0.0; 6000 N !
 FUNCTION VT75      298.15 +0.0; 6000 N !
 FUNCTION VT50      298.15 +0.0; 6000 N !
 FUNCTION VT51      298.15 +0.0; 6000 N !
 FUNCTION VT54      298.15 +0.0; 6000 N !
 FUNCTION VT55      298.15 +0.0; 6000 N !
 FUNCTION VT52      298.15 +0.0; 6000 N !
 FUNCTION VT53      298.15 +0.0; 6000 N !
 FUNCTION TALNI     298.15 +1000; 6000 N !
 FUNCTION B2ALVA    298.15 +10000-T; 6000 N !
 FUNCTION LB2ALVA   298.15 +150000; 6000 N !
 FUNCTION B2ALNI    298.15 -152397.3+26.40575*T; 6000 N !
 FUNCTION LB2ALNI   298.15 -52440.88+11.30117*T; 6000 N !
 FUNCTION VT1       298.15 +0.0; 6000 N !
 FUNCTION VT2       298.15 -35.03; 6000 N !
 FUNCTION B2ALPT    298.15 +VAP50#+VAP51#*T+VAP98#*T*LN(T); 6000 N !
 FUNCTION LB2ALPT   298.15 +VAP52#+VAP53#*T+VAP99#*T*LN(T); 6000 N !
 FUNCTION L1A2ALPT  298.15 +VAP54#+VAP55#*T; 6000 N !
 FUNCTION B2NIVA    298.15 +162397.3-27.40575*T; 6000 N !
 FUNCTION LB2NIVA   298.15 -64024.38+26.49419*T; 6000 N !
 FUNCTION B2NIPT    298.15 +VT16#+VT17#*T; 6000 N !
 FUNCTION LB2NIPT   298.15 +VT18#+VT19#*T; 6000 N !
 FUNCTION B2PTVA    298.15 +B2ALVA#-B2ALPT#; 6000 N !
 FUNCTION LB2PTVA   298.15 -51322+25*T; 6000 N !
 FUNCTION VT14      298.15 +0.0; 6000 N !
 FUNCTION VT15      298.15 +0.0; 6000 N !
 FUNCTION VT12      298.15 +0.0; 6000 N !
 FUNCTION VT13      298.15 +0.0; 6000 N !
 FUNCTION VT10      298.15 +0.0; 6000 N !
 FUNCTION VT11      298.15 +0.0; 6000 N !
 FUNCTION VT20      298.15 +150218.78; 6000 N !
 FUNCTION VT21      298.15 -102.276; 6000 N !
 FUNCTION ALPTG0    298.15 +FAL3PT#+1.5*FAL2PT2#+FALPT3#; 6000 N !
 FUNCTION RECP      298.15 +VAP7#+VAP8#*T; 6000 N !
 FUNCTION UL0       298.15 +VAP18#+VAP19#*T; 6000 N !
 FUNCTION ALPTG1    298.15 +2*FAL3PT#-2*FALPT3#; 6000 N !
 FUNCTION UL1       298.15 +VAP20#+VAP21#*T; 6000 N !
 FUNCTION ALPTG2    298.15 +FAL3PT#-1.5*FAL2PT2#+FALPT3#; 6000 N !
 FUNCTION UL2       298.15 +0.0; 6000 N !
 FUNCTION L3FALPT   298.15 +0.0; 6000 N !
 FUNCTION L0FCC     298.15 +27500+10.977*T; 6000 N !
 FUNCTION NIPTG0    298.15 +GNI3PT1#+1.5*GNI2PT2#+GNI1PT3#; 6000 N !
 FUNCTION RECNINI   298.15 -3670; 6000 N !
 FUNCTION RECNIPT   298.15 -3250; 6000 N !
 FUNCTION RECPTPT   298.15 -2730; 6000 N !
 FUNCTION L1FCC     298.15 -6500; 6000 N !
 FUNCTION NIPTG1    298.15 +2*GNI3PT1#-2*GNI1PT3#; 6000 N !
 FUNCTION L2FCC     298.15 +0.0; 6000 N !
 FUNCTION NIPTG2    298.15 +GNI3PT1#-1.5*GNI2PT2#+GNI1PT3#; 6000 N !
 FUNCTION L3FCC     298.15 +0.0; 6000 N !
 FUNCTION L10INTAN  298.15 +0.0; 6000 N !
 FUNCTION L10INTAP  298.15 +0.0; 6000 N !
 FUNCTION VT84      298.15 +0.0; 6000 N !
 FUNCTION VT85      298.15 +0.0; 6000 N !
 FUNCTION VT82      298.15 +0.0; 6000 N !
 FUNCTION VT83      298.15 +0.0; 6000 N !
 FUNCTION VT80      298.15 +0.0; 6000 N !
 FUNCTION VT81      298.15 +0.0; 6000 N !
 FUNCTION L10INTNP  298.15 +2000; 6000 N !
 FUNCTION AL3NI     298.15 +3*U1ALNI#; 6000 N !
 FUNCTION AL3PT     298.15 +VAP70#+VAP75#*T; 6000 N !
 FUNCTION AL2NI2    298.15 +4*U1ALNI#; 6000 N !
 FUNCTION ALNIPT2   298.15 +U1ALNI#+2*U1ALPT#+2*U1NIPT#+U1ALNIPT#; 6000 N !
 FUNCTION ALNI2PT   298.15 +2*U1ALNI#+U1ALPT#+2*U1NIPT#+U2ALNIPT#; 6000 N !
 FUNCTION AL2NIPT   298.15 +2*U1ALNI#+2*U1ALPT#+U1NIPT#+U3ALNIPT#; 6000 N !
 FUNCTION AL2PT2    298.15 +VAP72#+VAP73#*T; 6000 N !
 FUNCTION NI2PT2    298.15 +GNI2PT2#+4*MOD2#; 6000 N !
 FUNCTION L04ALNI   298.15 +TU3ALNI#; 6000 N !
 FUNCTION L14ALNI   298.15 +U4ALNI#; 6000 N !
 FUNCTION L04ALPT   298.15 +VAP76#+VAP77#*T; 6000 N !
 FUNCTION L14ALPT   298.15 +VAP78#+VAP79#*T; 6000 N !
 FUNCTION L04NIPT   298.15 +0.0; 6000 N !
 FUNCTION L14NIPT   298.15 +0.0; 6000 N !
 FUNCTION VT60      298.15 +25000; 6000 N !
 FUNCTION VT61      298.15 +0.0; 6000 N !
 FUNCTION LLIQ0     298.15 +VAP40#+VAP41#*T; 6000 N !
 FUNCTION LLIQ1     298.15 +VAP42#+VAP43#*T; 6000 N !
 FUNCTION LLIQ2     298.15 +VAP44#+VAP45#*T; 6000 N !
 FUNCTION LLIQ3     298.15 +VAP46#+VAP47#*T; 6000 N !
 FUNCTION LLIQ4     298.15 +VAP48#+VAP49#*T; 6000 N !
 FUNCTION VT90      298.15 -63480.602; 6000 N !
 FUNCTION VT91      298.15 +9; 6000 N !
 FUNCTION VAP85     298.15 -108752.94; 6000 N !
 FUNCTION VAP95     298.15 +150.5; 6000 N !
 FUNCTION VT92      298.15 -4650.51048; 6000 N !
 FUNCTION VT93      298.15 +0.0; 6000 N !
 FUNCTION GAL2PT    298.15 -94900.775+149.04431*T+VAP36#*T*LN(T)
     -25.3879657*T*LN(T)-9.76971043E-04*T**2-1.24939625E-07*T**3
     +57838.2515*T**(-1); 6000 N !
 FUNCTION VAP80     298.15 -91600; 6000 N !
 FUNCTION VAP90     298.15 +143.5167; 6000 N !
 FUNCTION VAP82     298.15 -53700; 6000 N !
 FUNCTION VAP92     298.15 +7.89; 6000 N !
 FUNCTION VAP83     298.15 -95900; 6000 N !
 FUNCTION VAP93     298.15 +145; 6000 N !
 FUNCTION VAP84     298.15 -81700; 6000 N !
 FUNCTION VAP94     298.15 +142; 6000 N !
 FUNCTION VAP34     298.15 +0.0; 6000 N !
 FUNCTION GBCCAL    298.15 +10083-4.813*T+GHSERAL#; 6000 N !
 FUNCTION GBCCNI    298.15 +8715.084-3.556*T+GHSERNI#; 6000 N !
 FUNCTION GPTBCC    298.15 +15000-2.4*T+GHSERPT#; 4000 N !
 FUNCTION GAL3PT2   298.15 +VAP81#+VAP91#*T+VAP31#*T*LN(T)
     -25.5546046*T*LN(T)-5.42160693E-04*T**2-1.70115474E-07*T**3
     +93033.608*T**(-1); 6000 N !
 FUNCTION VAP40     298.15 -246324.6; 6000 N !
 FUNCTION VAP41     298.15 -.5059812; 6000 N !
 FUNCTION VAP42     298.15 -61241.49; 6000 N !
 FUNCTION VAP43     298.15 +32.060977; 6000 N !
 FUNCTION VAP44     298.15 +63346.674; 6000 N !
 FUNCTION VAP45     298.15 +0.0; 6000 N !
 FUNCTION VAP46     298.15 +0.0; 6000 N !
 FUNCTION VAP47     298.15 +0.0; 6000 N !
 FUNCTION VAP48     298.15 +0.0; 6000 N !
 FUNCTION VAP49     298.15 +0.0; 6000 N !
 FUNCTION FAL3PT    298.15 +VAP10#+VAP11#*T; 6000 N !
 FUNCTION FAL2PT2   298.15 +VAP12#+VAP13#*T; 6000 N !
 FUNCTION FALPT3    298.15 +VAP14#+VAP15#*T; 6000 N !
 FUNCTION VAP7      298.15 -32899.859; 6000 N !
 FUNCTION VAP8      298.15 +0.0; 6000 N !
 FUNCTION VAP18     298.15 +3819.8849; 6000 N !
 FUNCTION VAP19     298.15 +2.0319; 6000 N !
 FUNCTION VAP20     298.15 +1068.6684; 6000 N !
 FUNCTION VAP21     298.15 +0.0; 6000 N !
 FUNCTION GNI3PT1   298.15 +RNI3PT1#-.1875*L0FCC#-.09375*L1FCC#
     -.046875*L2FCC#-.0234375*L3FCC#; 6000 N !
 FUNCTION GNI2PT2   298.15 +RNI2PT2#-.25*L0FCC#; 6000 N !
 FUNCTION GNI1PT3   298.15 +RNI1PT3#-.1875*L0FCC#+.09375*L1FCC#
     -.046875*L2FCC#+.0234375*L3FCC#; 6000 N !
 FUNCTION U1ALNI    298.15 +2*UNTIER#*UALNI#; 6000 N !
 FUNCTION VAP74     298.15 -69052.2589; 6000 N !
 FUNCTION VAP75     298.15 +11.4302696; 6000 N !
 FUNCTION MOD       298.15 +3*T; 6000 N !
 FUNCTION VAP70     298.15 -40695.4962; 6000 N !
 FUNCTION VAP72     298.15 -92910.7034; 6000 N !
 FUNCTION VAP73     298.15 +29.2844153; 6000 N !
 FUNCTION MOD2      298.15 +2.5*T; 6000 N !
 FUNCTION U1ALPT    298.15 +UNQUAT#*AL2PT2#; 6000 N !
 FUNCTION U1NIPT    298.15 +UNQUAT#*NI2PT2#; 6000 N !
 FUNCTION U1ALNIPT  298.15 +VT30#+VT31#*T; 6000 N !
 FUNCTION U2ALNIPT  298.15 +VT32#+VT33#*T; 6000 N !
 FUNCTION U3ALNIPT  298.15 +VT34#+VT35#*T; 6000 N !
 FUNCTION TU3ALNI   298.15 +0.0; 6000 N !
 FUNCTION U4ALNI    298.15 +7203.60609-3.7427303*T; 6000 N !
 FUNCTION VAP76     298.15 -7423.50497; 6000 N !
 FUNCTION VAP77     298.15 +0.0; 6000 N !
 FUNCTION VAP78     298.15 +4616.64892; 6000 N !
 FUNCTION VAP79     298.15 +0.0; 6000 N !
 FUNCTION VAP50     298.15 -205828.04; 6000 N !
 FUNCTION VAP51     298.15 +23; 6000 N !
 FUNCTION VAP98     298.15 +0.0; 6000 N !
 FUNCTION VAP52     298.15 -15000; 6000 N !
 FUNCTION VAP53     298.15 -25; 6000 N !
 FUNCTION VAP99     298.15 +0.0; 6000 N !
 FUNCTION VAP54     298.15 +25000; 6000 N !
 FUNCTION VAP55     298.15 +0.0; 6000 N !
 FUNCTION VT16      298.15 -22697.103; 6000 N !
 FUNCTION VT17      298.15 -11.985216; 6000 N !
 FUNCTION VT18      298.15 +0.0; 6000 N !
 FUNCTION VT19      298.15 +0.0; 6000 N !
 FUNCTION VT42      298.15 -56297.67; 6000 N !
 FUNCTION VT43      298.15 +5; 6000 N !
 FUNCTION VT40      298.15 -66500; 6000 N !
 FUNCTION VT41      298.15 +4.917; 6000 N !
 FUNCTION VAP36     298.15 +0.0; 6000 N !
 FUNCTION VAP81     298.15 -104000; 6000 N !
 FUNCTION VAP91     298.15 +150; 6000 N !
 FUNCTION VAP31     298.15 +0.0; 6000 N !
 FUNCTION VAP10     298.15 -43582.437; 6000 N !
 FUNCTION VAP11     298.15 +2; 6000 N !
 FUNCTION VAP12     298.15 -93413.353; 6000 N !
 FUNCTION VAP13     298.15 +11.0887; 6000 N !
 FUNCTION VAP14     298.15 -65861.2; 6000 N !
 FUNCTION VAP15     298.15 +7.0131; 6000 N !
 FUNCTION RNI3PT1   298.15 -10900; 6000 N !
 FUNCTION RNI2PT2   298.15 -13500-.5*T; 6000 N !
 FUNCTION RNI1PT3   298.15 -8300-.5*T; 6000 N !
 FUNCTION UNTIER    298.15 +TROIS#**(-1); 6000 N !
 FUNCTION UALNI     298.15 -22212.8931+4.39570389*T; 6000 N !
 FUNCTION UNQUAT    298.15 +QUATRE#**(-1); 6000 N !
 FUNCTION VT30      298.15 -10003.348; 6000 N !
 FUNCTION VT31      298.15 +1.905; 6000 N !
 FUNCTION VT32      298.15 +0.0; 6000 N !
 FUNCTION VT33      298.15 +0.0; 6000 N !
 FUNCTION VT34      298.15 +10753.852; 6000 N !
 FUNCTION VT35      298.15 +0.0; 6000 N !
 FUNCTION TROIS     298.15 +3; 6000 N !
 FUNCTION QUATRE    298.15 +4; 6000 N !
 FUNCTION UN_ASS 298.15 +0; 300 N !
 
 TYPE_DEFINITION % SEQ *!
 DEFINE_SYSTEM_DEFAULT ELEMENT 2 !
 DEFAULT_COMMAND DEF_SYS_ELEMENT VA /- !


 PHASE AL3NI1  %  2 .75   .25 !
    CONSTITUENT AL3NI1  :AL : NI :  !

   PARAMETER G(AL3NI1,AL:NI;0)            298.15 -48483.73+12.29913*T
  +.75*GHSERAL#+.25*GHSERNI#; 6000 N REF0 !


 PHASE AL3NI2  %  3 3   2   1 !
    CONSTITUENT AL3NI2  :AL : AL,NI%,PT : NI,PT,VA% :  !

   PARAMETER G(AL3NI2,AL:AL:NI;0)         298.15 +5*GBCCAL#+GBCCNI#
  -39465.978+7.89525*T; 6000 N REF0 !
   PARAMETER G(AL3NI2,AL:NI:NI;0)         298.15 +3*GBCCAL#+3*GBCCNI#
  -427191.9+79.21725*T; 6000 N REF0 !
       PARA G(AL3NI2,AL:PT:NI;0) 298.15 +0; 6000 N!
   PARAMETER G(AL3NI2,AL:AL:PT;0)         298.15 +5*GBCCAL#+GPTBCC#; 6000 N 
  REF0 !
       PARA G(AL3NI2,AL:NI:PT;0) 298.15 +0; 6000 N!
   PARAMETER G(AL3NI2,AL:PT:PT;0)         298.15 +3*GBCCAL#+3*GPTBCC#; 6000 
  N REF0 !
   PARAMETER G(AL3NI2,AL:AL:VA;0)         298.15 +5*GBCCAL#+30000-3*T; 6000 
  N REF0 !
   PARAMETER G(AL3NI2,AL:NI:VA;0)         298.15 +3*GBCCAL#+2*GBCCNI#
  -357725.92+68.322*T; 6000 N REF0 !
   PARAMETER G(AL3NI2,AL:PT:VA;0)         298.15 +5*GAL3PT2#; 6000 N REF0 !
   PARAMETER G(AL3NI2,AL:AL,NI:*;0)       298.15 -193484.18+131.79*T; 6000 N 
  REF0 !
   PARAMETER G(AL3NI2,AL:*:NI,VA;0)       298.15 -22001.7+7.0332*T; 6000 N 
  REF0 !
   PARAMETER G(AL3NI2,AL:NI,PT:*;0)       298.15 +75000; 6000 N REF0 !


 PHASE AL3NI5  %  2 .375   .625 !
    CONSTITUENT AL3NI5  :AL : NI :  !

   PARAMETER G(AL3NI5,AL:NI;0)            298.15 +.375*GHSERAL#
  +.625*GHSERNI#-55507.7594+7.2648103*T; 6000 N REF0 !


 TYPE_DEFINITION & GES A_P_D BCC_A2 MAGNETIC  -1.0    4.00000E-01 !
 PHASE BCC_A2  %&  2 1   3 !
    CONSTITUENT BCC_A2  :AL,NI,PT,VA : VA :  !

   PARAMETER G(BCC_A2,AL:VA;0)            298.15 +2106.85+132.280038*T
  -24.3671976*T*LN(T)-.001884662*T**2-8.77664E-07*T**3+74092*T**(-1); 700 Y
   -1193.24+218.235446*T-38.5844296*T*LN(T)+.018531982*T**2
  -5.764227E-06*T**3+74092*T**(-1); 933.47 Y
   -1195.378+183.871153*T-31.748192*T*LN(T)-1.230524E+28*T**(-9); 2900 N 
  REF0 !
   PARAMETER G(BCC_A2,NI:VA;0)            298.15 +3535.925+114.298*T
  -22.096*T*LN(T)-.0048407*T**2; 1728 Y
   -19125.571+275.579*T-43.1*T*LN(T)+1.12754E+31*T**(-9); 3000 N REF0 !
   PARAMETER TC(BCC_A2,NI:VA;0)           298.15 +575; 3000 N REF0 !
   PARAMETER BMAGN(BCC_A2,NI:VA;0)        298.15 +.85; 3000 N REF0 !
   PARAMETER G(BCC_A2,PT:VA;0)            298.15 +7404.369+121.988275*T
  -24.5526*T*LN(T)-.00248297*T**2-2.0138E-08*T**3+7974*T**(-1); 1300 Y
   +5746.826+159.129615*T-30.2527*T*LN(T)+.002321665*T**2-6.56946E-07*T**3
  -272106*T**(-1); 2041.50 Y
   -207048.216+1016.95892*T-136.192996*T*LN(T)+.020454938*T**2
  -7.59259E-07*T**3+71539020*T**(-1); 4000 N REF0 !
   PARAMETER G(BCC_A2,VA:VA;0)            298.15 +0.2*R*T; 6000 N REF0 !
   PARAMETER G(BCC_A2,AL,VA:VA;0)         298.15 +B2ALVA#+LB2ALVA#; 6000 N 
  REF0 !
   PARAMETER G(BCC_A2,AL,NI:VA;0)         298.15 +B2ALNI#+LB2ALNI#; 6000 N 
  REF0 !
   PARAMETER G(BCC_A2,AL,NI,PT:VA;0)      298.15 +VT1#+VT2#*T; 6000 N REF0 !
   PARAMETER G(BCC_A2,AL,PT:VA;0)         298.15 +B2ALPT#+LB2ALPT#; 6000 N 
  REF0 !
   PARAMETER G(BCC_A2,AL,PT:VA;1)         298.15 +L1A2ALPT#; 6000 N REF0 !
   PARAMETER G(BCC_A2,NI,VA:VA;0)         298.15 +B2NIVA#+LB2NIVA#; 6000 N 
  REF0 !
   PARAMETER G(BCC_A2,NI,PT:VA;0)         298.15 +B2NIPT#+LB2NIPT#; 6000 N 
  REF0 !
   PARAMETER G(BCC_A2,PT,VA:VA;0)         298.15 +B2PTVA#+LB2PTVA#; 6000 N 
  REF0 !


$ THIS PHASE HAS A DISORDERED CONTRIBUTION FROM BCC_A2                  
 TYPE_DEFINITION ' GES AMEND_PHASE_DESCRIPTION BCC_B2 DIS_PART BCC_A2,,,!
 TYPE_DEFINITION ( GES A_P_D BCC_B2 MAGNETIC  -1.0    4.00000E-01 !
 PHASE BCC_B2  %'(  3 .5   .5   3 !
    CONSTITUENT BCC_B2  :AL,NI,PT,VA : AL,NI,PT,VA : VA :  !

       PARA G(BCC_B2,AL:AL:VA;0) 298.15 +0; 6000 N!
   PARAMETER G(BCC_B2,NI:AL:VA;0)         298.15 +.5*B2ALNI#-.5*LB2ALNI#; 
  6000 N REF0 !
   PARAMETER G(BCC_B2,PT:AL:VA;0)         298.15 +.5*B2ALPT#-.5*LB2ALPT#; 
  6000 N REF0 !
   PARAMETER G(BCC_B2,VA:AL:VA;0)         298.15 +.5*B2ALVA#-.5*LB2ALVA#; 
  6000 N REF0 !
   PARAMETER G(BCC_B2,AL:NI:VA;0)         298.15 +.5*B2ALNI#-.5*LB2ALNI#; 
  6000 N REF0 !
       PARA G(BCC_B2,NI:NI:VA;0) 298.15 +0; 6000 N!
   PARAMETER G(BCC_B2,PT:NI:VA;0)         298.15 +.5*B2NIPT#-.5*LB2NIPT#; 
  6000 N REF0 !
   PARAMETER G(BCC_B2,VA:NI:VA;0)         298.15 +.5*B2NIVA#-.5*LB2NIVA#; 
  6000 N REF0 !
   PARAMETER G(BCC_B2,AL:PT:VA;0)         298.15 +.5*B2ALPT#-.5*LB2ALPT#; 
  6000 N REF0 !
   PARAMETER G(BCC_B2,NI:PT:VA;0)         298.15 +.5*B2NIPT#-.5*LB2NIPT#; 
  6000 N REF0 !
       PARA G(BCC_B2,PT:PT:VA;0) 298.15 +0; 6000 N!
   PARAMETER G(BCC_B2,VA:PT:VA;0)         298.15 +.5*B2PTVA#-.5*LB2PTVA#; 
  6000 N REF0 !
   PARAMETER G(BCC_B2,AL:VA:VA;0)         298.15 +.5*B2ALVA#-.5*LB2ALVA#; 
  6000 N REF0 !
   PARAMETER G(BCC_B2,NI:VA:VA;0)         298.15 +.5*B2NIVA#-.5*LB2NIVA#; 
  6000 N REF0 !
   PARAMETER G(BCC_B2,PT:VA:VA;0)         298.15 +.5*B2PTVA#-.5*LB2PTVA#; 
  6000 N REF0 !
       PARA G(BCC_B2,VA:VA:VA;0) 298.15 +0; 6000 N!
   PARAMETER G(BCC_B2,NI,PT:AL:VA;0)      298.15 +VT14#+VT15#*T; 6000 N REF0 !
   PARAMETER G(BCC_B2,NI:AL,PT:VA;0)      298.15 +VT12#+VT13#*T; 6000 N REF0 !
   PARAMETER G(BCC_B2,PT:AL,NI:VA;0)      298.15 +VT10#+VT11#*T; 6000 N REF0 !
   PARAMETER G(BCC_B2,AL,PT:NI:VA;0)      298.15 +VT12#+VT13#*T; 6000 N REF0 !
   PARAMETER G(BCC_B2,AL:NI,PT:VA;0)      298.15 +VT14#+VT15#*T; 6000 N REF0 !
   PARAMETER G(BCC_B2,AL,NI:PT:VA;0)      298.15 +VT10#+VT11#*T; 6000 N REF0 !


 TYPE_DEFINITION ) GES A_P_D FCC_A1 MAGNETIC  -3.0    2.80000E-01 !
 PHASE FCC_A1  %)  2 1   1 !
    CONSTITUENT FCC_A1  :AL,NI,PT : VA :  !

   PARAMETER G(FCC_A1,AL:VA;0)            298.15 +GHSERAL#; 2900 N REF0 !
   PARAMETER G(FCC_A1,NI:VA;0)            298.15 +GHSERNI#; 3000 N REF0 !
   PARAMETER TC(FCC_A1,NI:VA;0)           298.15 +633; 3000 N REF0 !
   PARAMETER BMAGN(FCC_A1,NI:VA;0)        298.15 +.52; 3000 N REF0 !
   PARAMETER G(FCC_A1,PT:VA;0)            298.15 +GHSERPT#; 4000 N REF0 !
   PARAMETER TC(FCC_A1,AL,NI:VA;0)        298.15 -1112; 6000 N REF0 !
   PARAMETER TC(FCC_A1,AL,NI:VA;1)        298.15 +1745; 6000 N REF0 !
   PARAMETER G(FCC_A1,AL,NI:VA;0)         298.15 -162407.75+16.212965*T; 
  6000 N REF0 !
   PARAMETER G(FCC_A1,AL,NI:VA;1)         298.15 +73417.798-34.914168*T; 
  6000 N REF0 !
   PARAMETER G(FCC_A1,AL,NI:VA;2)         298.15 +33471.014-9.8373558*T; 
  6000 N REF0 !
   PARAMETER G(FCC_A1,AL,NI:VA;3)         298.15 -30758.01+10.25267*T; 6000 
  N REF0 !
   PARAMETER G(FCC_A1,AL,NI,PT:VA;0)      298.15 +VT20#+VT21#*T; 6000 N REF0 !
   PARAMETER G(FCC_A1,AL,NI,PT:VA;1)      298.15 +VT20#+VT21#*T; 6000 N REF0 !
   PARAMETER G(FCC_A1,AL,NI,PT:VA;2)      298.15 +VT20#+VT21#*T; 6000 N REF0 !
   PARAMETER G(FCC_A1,AL,PT:VA;0)         298.15 +ALPTG0#+1.5*RECP#+4*UL0#; 
  6000 N REF0 !
   PARAMETER G(FCC_A1,AL,PT:VA;1)         298.15 +ALPTG1#+4*UL1#; 6000 N 
  REF0 !
   PARAMETER G(FCC_A1,AL,PT:VA;2)         298.15 +ALPTG2#-1.5*RECP#+4*UL2#; 
  6000 N REF0 !
   PARAMETER G(FCC_A1,AL,PT:VA;3)         298.15 +L3FALPT#; 6000 N REF0 !
   PARAMETER G(FCC_A1,NI,PT:VA;0)         298.15 +L0FCC#+NIPTG0#
  +.375*RECNINI#+.75*RECNIPT#+.375*RECPTPT#; 6000 N REF0 !
   PARAMETER G(FCC_A1,NI,PT:VA;1)         298.15 +L1FCC#+NIPTG1#
  +.75*RECNINI#-.75*RECPTPT#; 6000 N REF0 !
   PARAMETER G(FCC_A1,NI,PT:VA;2)         298.15 +L2FCC#+NIPTG2#
  -1.5*RECNIPT#; 6000 N REF0 !
   PARAMETER G(FCC_A1,NI,PT:VA;3)         298.15 +L3FCC#-.75*RECNINI#
  +.75*RECPTPT#; 6000 N REF0 !
   PARAMETER G(FCC_A1,NI,PT:VA;4)         298.15 -.375*RECNINI#+.75*RECNIPT#
  -.375*RECPTPT#; 6000 N REF0 !


 PHASE FCC_L10  %  2 .5   .5 !
    CONSTITUENT FCC_L10  :AL,NI,PT : AL,NI,PT :  !

   PARAMETER G(FCC_L10,AL:AL;0)           298.15 +GHSERAL#+.5*T; 6000 N REF0 !
   PARAMETER G(FCC_L10,NI:AL;0)           298.15 +.5*GHSERAL#+.5*GHSERNI#
  +GALNIL10#; 4000 N REF0 !
   PARAMETER G(FCC_L10,PT:AL;0)           298.15 +.5*GHSERAL#+.5*GHSERPT#
  +GALPTL10#; 4000 N REF0 !
   PARAMETER G(FCC_L10,AL:NI;0)           298.15 +.5*GHSERAL#+.5*GHSERNI#
  +GALNIL10#; 6000 N REF0 !
   PARAMETER G(FCC_L10,NI:NI;0)           298.15 +GHSERNI#+.5*T; 4000 N REF0 !
   PARAMETER G(FCC_L10,PT:NI;0)           298.15 +.5*GHSERNI#+.5*GHSERPT#
  +GNIPTL10#; 4000 N REF0 !
   PARAMETER G(FCC_L10,AL:PT;0)           298.15 +.5*GHSERAL#+.5*GHSERPT#
  +GALPTL10#; 6000 N REF0 !
   PARAMETER G(FCC_L10,NI:PT;0)           298.15 +.5*GHSERNI#+.5*GHSERPT#
  +GNIPTL10#; 6000 N REF0 !
   PARAMETER G(FCC_L10,PT:PT;0)           298.15 +GHSERPT#+.5*T; 4000 N REF0 !
   PARAMETER G(FCC_L10,AL,NI:AL;0)        298.15 +L10INTAN#; 4000 N REF0 !
   PARAMETER G(FCC_L10,AL,PT:AL;0)        298.15 +L10INTAP#; 4000 N REF0 !
   PARAMETER G(FCC_L10,AL:AL,NI;0)        298.15 +L10INTAN#; 4000 N REF0 !
   PARAMETER G(FCC_L10,AL:AL,PT;0)        298.15 +L10INTAP#; 4000 N REF0 !
   PARAMETER G(FCC_L10,NI,PT:AL;0)        298.15 +VT84#+VT85#*T; 4000 N REF0 !
   PARAMETER G(FCC_L10,NI:AL,NI;0)        298.15 +L10INTAN#; 4000 N REF0 !
   PARAMETER G(FCC_L10,NI:AL,PT;0)        298.15 +VT82#+VT83#*T; 4000 N REF0 !
   PARAMETER G(FCC_L10,PT:AL,PT;0)        298.15 +L10INTAP#; 4000 N REF0 !
   PARAMETER G(FCC_L10,PT:AL,NI;0)        298.15 +VT80#+VT81#*T; 4000 N REF0 !
   PARAMETER G(FCC_L10,AL,NI:NI;0)        298.15 +L10INTAN#; 4000 N REF0 !
   PARAMETER G(FCC_L10,AL,PT:NI;0)        298.15 +VT82#+VT83#*T; 4000 N REF0 !
   PARAMETER G(FCC_L10,AL:NI,PT;0)        298.15 +VT84#+VT85#*T; 4000 N REF0 !
   PARAMETER G(FCC_L10,NI,PT:NI;0)        298.15 +L10INTNP#; 4000 N REF0 !
   PARAMETER G(FCC_L10,NI:NI,PT;0)        298.15 +L10INTNP#; 4000 N REF0 !
   PARAMETER G(FCC_L10,PT:NI,PT;0)        298.15 +L10INTNP#; 4000 N REF0 !
   PARAMETER G(FCC_L10,AL,PT:PT;0)        298.15 +L10INTAP#; 4000 N REF0 !
   PARAMETER G(FCC_L10,AL,NI:PT;0)        298.15 +VT80#+VT81#*T; 4000 N REF0 !
   PARAMETER G(FCC_L10,NI,PT:PT;0)        298.15 +L10INTNP#; 4000 N REF0 !


$ THIS PHASE HAS A DISORDERED CONTRIBUTION FROM FCC_A1                  
 TYPE_DEFINITION * GES AMEND_PHASE_DESCRIPTION FCC_L12 DIS_PART FCC_A1,,,!
 TYPE_DEFINITION + GES A_P_D FCC_L12 MAGNETIC  -3.0    2.80000E-01 !
 PHASE FCC_L12  %*+  3 .75   .25   1 !
    CONSTITUENT FCC_L12  :AL,NI,PT : AL,NI,PT : VA :  !

       PARA G(FCC_L12,AL:AL:VA;0) 298.15 +0; 6000 N!
   PARAMETER G(FCC_L12,NI:AL:VA;0)        298.15 +ALNI3#; 6000 N REF6 !
   PARAMETER G(FCC_L12,PT:AL:VA;0)        298.15 +ALPT3#; 6000 N REF6 !
   PARAMETER G(FCC_L12,AL:NI:VA;0)        298.15 +AL3NI#; 6000 N REF6 !
       PARA G(FCC_L12,NI:NI:VA;0) 298.15 +0; 6000 N!
   PARAMETER G(FCC_L12,PT:NI:VA;0)        298.15 +NIPT3#; 6000 N REF6 !
   PARAMETER G(FCC_L12,AL:PT:VA;0)        298.15 +AL3PT#; 6000 N REF6 !
   PARAMETER G(FCC_L12,NI:PT:VA;0)        298.15 +NI3PT#; 6000 N REF6 !
       PARA G(FCC_L12,PT:PT:VA;0) 298.15 +0; 6000 N!
   PARAMETER G(FCC_L12,AL,NI:AL:VA;0)     298.15 -1.5*ALNI3#+1.5*AL2NI2#
  +1.5*AL3NI#+3*L04ALNI#; 6000 N REF6 !
   PARAMETER G(FCC_L12,AL,NI:AL:VA;1)     298.15 +.5*ALNI3#-1.5*AL2NI2#
  +1.5*AL3NI#+3*L14ALNI#; 6000 N REF6 !
   PARAMETER G(FCC_L12,AL,NI,PT:AL:VA;0)  298.15 -1.5*ALNIPT2#-1.5*ALNI2PT#
  +ALNI3#+ALPT3#+6*AL2NIPT#-1.5*AL2NI2#-1.5*AL2PT2#-1.5*AL3NI#-1.5*AL3PT#; 
  6000 N REF6 !
   PARAMETER G(FCC_L12,AL,PT:AL:VA;0)     298.15 -1.5*ALPT3#+1.5*AL2PT2#
  +1.5*AL3PT#+3*L04ALPT#; 6000 N REF6 !
   PARAMETER G(FCC_L12,AL,PT:AL:VA;1)     298.15 +.5*ALPT3#-1.5*AL2PT2#
  +1.5*AL3PT#+3*L14ALPT#; 6000 N REF6 !
   PARAMETER G(FCC_L12,AL:AL,NI:VA;0)     298.15 +L04ALNI#; 6000 N REF6 !
   PARAMETER G(FCC_L12,AL:AL,NI:VA;1)     298.15 +L14ALNI#; 6000 N REF6 !
   PARAMETER G(FCC_L12,AL:AL,PT:VA;0)     298.15 +L04ALPT#; 6000 N REF6 !
   PARAMETER G(FCC_L12,AL:AL,PT:VA;1)     298.15 +L14ALPT#; 6000 N REF6 !
   PARAMETER G(FCC_L12,NI,PT:AL:VA;0)     298.15 +1.5*ALNIPT2#+1.5*ALNI2PT#
  -1.5*ALNI3#-1.5*ALPT3#+3*L04NIPT#; 6000 N REF6 !
   PARAMETER G(FCC_L12,NI,PT:AL:VA;1)     298.15 -1.5*ALNIPT2#+1.5*ALNI2PT#
  -.5*ALNI3#+.5*ALPT3#+3*L14NIPT#; 6000 N REF6 !
   PARAMETER G(FCC_L12,NI:AL,NI:VA;0)     298.15 +L04ALNI#; 6000 N REF6 !
   PARAMETER G(FCC_L12,NI:AL,NI:VA;1)     298.15 +L14ALNI#; 6000 N REF6 !
   PARAMETER G(FCC_L12,NI:AL,PT:VA;0)     298.15 +L04ALPT#; 6000 N REF6 !
   PARAMETER G(FCC_L12,NI:AL,PT:VA;1)     298.15 +L14ALPT#; 6000 N REF6 !
   PARAMETER G(FCC_L12,PT:AL,NI:VA;0)     298.15 +L04ALNI#; 6000 N REF6 !
   PARAMETER G(FCC_L12,PT:AL,NI:VA;1)     298.15 +L14ALNI#; 6000 N REF6 !
   PARAMETER G(FCC_L12,PT:AL,PT:VA;0)     298.15 +L04ALPT#; 6000 N REF6 !
   PARAMETER G(FCC_L12,PT:AL,PT:VA;1)     298.15 +L14ALPT#; 6000 N REF6 !
   PARAMETER G(FCC_L12,AL,NI:NI:VA;0)     298.15 +1.5*ALNI3#+1.5*AL2NI2#
  -1.5*AL3NI#+3*L04ALNI#; 6000 N REF6 !
   PARAMETER G(FCC_L12,AL,NI:NI:VA;1)     298.15 -1.5*ALNI3#+1.5*AL2NI2#
  -.5*AL3NI#+3*L14ALNI#; 6000 N REF6 !
   PARAMETER G(FCC_L12,AL,NI,PT:NI:VA;0)  298.15 -1.5*ALNIPT2#+6*ALNI2PT#
  -1.5*ALNI3#-1.5*AL2NIPT#-1.5*AL2NI2#+AL3NI#+NIPT3#-1.5*NI2PT2#-1.5*NI3PT#; 
  6000 N REF6 !
   PARAMETER G(FCC_L12,AL,PT:NI:VA;0)     298.15 +1.5*ALNIPT2#+1.5*AL2NIPT#
  -1.5*AL3NI#-1.5*NIPT3#+3*L04ALPT#; 6000 N REF6 !
   PARAMETER G(FCC_L12,AL,PT:NI:VA;1)     298.15 -1.5*ALNIPT2#+1.5*AL2NIPT#
  -.5*AL3NI#+.5*NIPT3#+3*L14ALPT#; 6000 N REF6 !
   PARAMETER G(FCC_L12,AL:NI,PT:VA;0)     298.15 +L04NIPT#; 6000 N REF6 !
   PARAMETER G(FCC_L12,AL:NI,PT:VA;1)     298.15 +L14NIPT#; 6000 N REF6 !
   PARAMETER G(FCC_L12,NI,PT:NI:VA;0)     298.15 -1.5*NIPT3#+1.5*NI2PT2#
  +1.5*NI3PT#+3*L04NIPT#; 6000 N REF6 !
   PARAMETER G(FCC_L12,NI,PT:NI:VA;1)     298.15 +.5*NIPT3#-1.5*NI2PT2#
  +1.5*NI3PT#+3*L14NIPT#; 6000 N REF6 !
   PARAMETER G(FCC_L12,NI:NI,PT:VA;0)     298.15 +L04NIPT#; 6000 N REF6 !
   PARAMETER G(FCC_L12,NI:NI,PT:VA;1)     298.15 +L14NIPT#; 6000 N REF6 !
   PARAMETER G(FCC_L12,PT:NI,PT:VA;0)     298.15 +L04NIPT#; 6000 N REF6 !
   PARAMETER G(FCC_L12,PT:NI,PT:VA;1)     298.15 +L14NIPT#; 6000 N REF6 !
   PARAMETER G(FCC_L12,AL,PT:PT:VA;0)     298.15 +1.5*ALPT3#+1.5*AL2PT2#
  -1.5*AL3PT#+3*L04ALPT#; 6000 N REF6 !
   PARAMETER G(FCC_L12,AL,PT:PT:VA;1)     298.15 -1.5*ALPT3#+1.5*AL2PT2#
  -.5*AL3PT#+3*L14ALPT#; 6000 N REF6 !
   PARAMETER G(FCC_L12,AL,NI:PT:VA;0)     298.15 +1.5*ALNI2PT#+1.5*AL2NIPT#
  -1.5*AL3PT#-1.5*NI3PT#+3*L04ALNI#; 6000 N REF6 !
   PARAMETER G(FCC_L12,AL,NI:PT:VA;1)     298.15 -1.5*ALNI2PT#+1.5*AL2NIPT#
  -.5*AL3PT#+.5*NI3PT#+3*L14ALNI#; 6000 N REF6 !
   PARAMETER G(FCC_L12,AL,NI,PT:PT:VA;0)  298.15 +6*ALNIPT2#-1.5*ALNI2PT#
  -1.5*ALPT3#-1.5*AL2NIPT#-1.5*AL2PT2#+AL3PT#-1.5*NIPT3#-1.5*NI2PT2#+NI3PT#; 
  6000 N REF6 !
   PARAMETER G(FCC_L12,NI,PT:PT:VA;0)     298.15 +1.5*NIPT3#+1.5*NI2PT2#
  -1.5*NI3PT#+3*L04NIPT#; 6000 N REF6 !
   PARAMETER G(FCC_L12,NI,PT:PT:VA;1)     298.15 -1.5*NIPT3#+1.5*NI2PT2#
  -.5*NI3PT#+3*L14NIPT#; 6000 N REF6 !


 PHASE LIQUID  %  1  1.0  !
    CONSTITUENT LIQUID  :AL,NI,PT :  !

   PARAMETER G(LIQUID,AL;0)               298.15 +3028.879+125.251171*T
  -24.3671976*T*LN(T)-.001884662*T**2-8.77664E-07*T**3+74092*T**(-1)
  +7.9337E-20*T**7; 700 Y
   -271.21+211.206579*T-38.5844296*T*LN(T)+.018531982*T**2-5.764227E-06*T**3
  +74092*T**(-1)+7.9337E-20*T**7; 933.47 Y
   -795.996+177.430178*T-31.748192*T*LN(T); 2900 N REF0 !
   PARAMETER G(LIQUID,NI;0)               298.15 +11235.527+108.457*T
  -22.096*T*LN(T)-.0048407*T**2-3.82318E-21*T**7; 1728 Y
   -9549.775+268.598*T-43.1*T*LN(T); 3000 N REF0 !
   PARAMETER G(LIQUID,PT;0)               298.15 +12518.385+115.113092*T
  -24.5526*T*LN(T)-.00248297*T**2-2.0138E-08*T**3+7974*T**(-1); 600 Y
   +19023.491+32.94182*T-12.3403769*T*LN(T)-.011551507*T**2+9.31516E-07*T**3
  -601426*T**(-1); 2041.50 Y
   +1404.468+205.858962*T-36.5*T*LN(T); 4000 N REF0 !
   PARAMETER G(LIQUID,AL,NI;0)            298.15 -207109.28+41.31501*T; 6000 
  N REF0 !
   PARAMETER G(LIQUID,AL,NI;1)            298.15 -10185.79+5.8714*T; 6000 N 
  REF0 !
   PARAMETER G(LIQUID,AL,NI;2)            298.15 +81204.81-31.95713*T; 6000 
  N REF0 !
   PARAMETER G(LIQUID,AL,NI;3)            298.15 +4365.35-2.51632*T; 6000 N 
  REF0 !
   PARAMETER G(LIQUID,AL,NI;4)            298.15 -22101.64+13.16341*T; 6000 
  N REF0 !
   PARAMETER G(LIQUID,AL,NI,PT;0)         298.15 +VT60#+VT61#*T; 6000 N REF0 !
   PARAMETER G(LIQUID,AL,PT;0)            298.15 +LLIQ0#; 6000 N REF0 !
   PARAMETER G(LIQUID,AL,PT;1)            298.15 +LLIQ1#; 6000 N REF0 !
   PARAMETER G(LIQUID,AL,PT;2)            298.15 +LLIQ2#; 6000 N REF0 !
   PARAMETER G(LIQUID,AL,PT;3)            298.15 +LLIQ3#; 6000 N REF0 !
   PARAMETER G(LIQUID,AL,PT;4)            298.15 +LLIQ4#; 6000 N REF0 !
   PARAMETER G(LIQUID,NI,PT;0)            298.15 -40775.6; 6000 N REF0 !
   PARAMETER G(LIQUID,NI,PT;1)            298.15 -5500; 6000 N REF0 !
   PARAMETER G(LIQUID,NI,PT;2)            298.15 +3500; 6000 N REF0 !


 PHASE PT2AL  %  2 .3333   .6667 !
    CONSTITUENT PT2AL  :AL : PT :  !

   PARAMETER G(PT2AL,AL:PT;0)             298.15 +VAP80#+VAP90#*T
  -25.1147341*T*LN(T)-.00118339103*T**2-9.63850253E-08*T**3
  +47285.6272*T**(-1); 6000 N REF0 !


 PHASE PT5AL21  %  2 .8077   .1923 !
    CONSTITUENT PT5AL21  :AL : PT :  !

   PARAMETER G(PT5AL21,AL:PT;0)           298.15 +.8077*GHSERAL#
  +.1923*GHSERPT#+VAP82#+VAP92#*T; 6000 N REF0 !


 PHASE PT5AL3  %  2 .375   .625 !
    CONSTITUENT PT5AL3  :AL : PT :  !

   PARAMETER G(PT5AL3,AL:PT;0)            298.15 +VAP83#+VAP93#*T
  -25.2063775*T*LN(T)-.00123884732*T**2-1.57112248E-07*T**3
  +49147.617*T**(-1); 6000 N REF0 !


 PHASE PT8AL21  %  2 .7241   .2759 !
    CONSTITUENT PT8AL21  :AL : PT :  !

   PARAMETER G(PT8AL21,AL:PT;0)           298.15 +VAP84#+VAP94#*T
  +VAP34#*T*LN(T)-24.4824018*T*LN(T)-.00180259094*T**2-5.07905199E-08*T**3
  +73439.4837*T**(-1); 6000 N REF0 !


 PHASE PTAL  %  2 .5   .5 !
    CONSTITUENT PTAL  :AL : NI,PT :  !

   PARAMETER G(PTAL,AL:NI;0)              298.15 +VT90#+VT91#*T+.5*GHSERAL#
  +.5*GHSERNI#; 6000 N REF0 !
   PARAMETER G(PTAL,AL:PT;0)              298.15 +VAP85#+VAP95#*T
  -25.5681815*T*LN(T)-6.07797546E-04*T**2-1.62526769E-07*T**3
  +80317.0116*T**(-1); 6000 N REF0 !
   PARAMETER G(PTAL,AL:NI,PT;0)           298.15 +VT92#+VT93#*T; 6000 N REF0 !


 PHASE PTAL2  %  3 .5   .25   .25 !
    CONSTITUENT PTAL2  :AL : PT : VA :  !

   PARAMETER G(PTAL2,AL:PT:VA;0)          298.15 +.75*GAL2PT#; 6000 N REF0 !


 PHASE TERN_L10  %  3 .25   .25   .5 !
    CONSTITUENT TERN_L10  :AL,NI,PT : AL,NI,PT : NI,PT :  !

   PARAMETER G(TERN_L10,AL:AL:NI;0)       298.15 +GALNIL10#+.5*GHSERAL#
  +.5*GHSERNI#; 6000 N REF0 !
   PARAMETER G(TERN_L10,NI:AL:NI;0)       298.15 +ALNI3#+.75*GHSERNI#
  +.25*GHSERAL#+VT62#+VT63#*T; 6000 N REF0 !
   PARAMETER G(TERN_L10,PT:AL:NI;0)       298.15 +GALNI2PT#+.5*GHSERNI#
  +.25*GHSERAL#+.25*GHSERPT#; 6000 N REF0 !