$ Database file written 13- 4- 20

 ELEMENT /-   ELECTRON_GAS              0.0000E+00  0.0000E+00  0.0000E+00!
 ELEMENT VA   VACUUM                    0.0000E+00  0.0000E+00  0.0000E+00!
 ELEMENT FE   BCC_A2                    5.5847E+01  4.4890E+03  2.7280E+01!
 ELEMENT TI   HCP_A3                    4.7880E+01  4.8100E+03  3.0648E+01!
 ELEMENT BI   RHOMBO_A7                 2.0898E+02  6.4266E+03  5.6735E+01!
 
$--------------------------pure elements------------------------------------

 FUNCTION GHSERFE    2.98140E+02  +1225.7+124.134*T-23.5143*T*LN(T)
     -.00439752*T**2-5.8927E-08*T**3+77359*T**(-1);  1.81100E+03  Y
      -25383.581+299.31255*T-46*T*LN(T)+2.29603E+31*T**(-9);  6.00000E+03  N 
     ! 
 FUNCTION GFELIQ     2.98140E+02  +12040.17-6.55843*T-3.6751551E-21*T**7
     +GHSERFE#;  1.81100E+03  Y
      -10839.7+291.302*T-46*T*LN(T);  6.00000E+03  N !
 FUNCTION GPFELIQ    2.98150E+02  +YFELIQ#*EXP(ZFELIQ#);   6.00000E+03   N !
 FUNCTION YFELIQ     2.98150E+02  +VFELIQ#*EXP(-EFELIQ#);   6.00000E+03   N !
 FUNCTION ZFELIQ     2.98150E+02  +1*LN(XFELIQ#);   6.00000E+03   N !
 FUNCTION VFELIQ     2.98150E+02  +6.46677E-06*EXP(AFELIQ#);   6.00000E+03   
     N !
 FUNCTION EFELIQ     2.98150E+02  +1*LN(CFELIQ#);   6.00000E+03   N !
 FUNCTION XFELIQ     2.98150E+02  +1*EXP(.8484467*DFELIQ#)-1;   6.00000E+03  
      N !
 FUNCTION AFELIQ     2.98150E+02  +1.135E-04*T;   6.00000E+03   N !
 FUNCTION CFELIQ     2.98150E+02  +4.22534787E-12+2.71569924E-14*T;   
     6.00000E+03   N !
 FUNCTION DFELIQ     2.98150E+02  +1*LN(BFELIQ#);   6.00000E+03   N !
 FUNCTION BFELIQ     2.98150E+02  +1+4.98009787E-12*P+3.20078924E-14*T*P;   
     6.00000E+03   N ! 
 FUNCTION GPFEBCC    2.98150E+02  +YFEBCC#*EXP(ZFEBCC#);   6.00000E+03   N !
 FUNCTION YFEBCC     2.98150E+02  +VFEBCC#*EXP(-EFEBCC#);   6.00000E+03   N !
 FUNCTION ZFEBCC     2.98150E+02  +1*LN(XFEBCC#);   6.00000E+03   N !
 FUNCTION VFEBCC     2.98150E+02  +7.042095E-06*EXP(AFEBCC#);   6.00000E+03  
      N !
 FUNCTION EFEBCC     2.98150E+02  +1*LN(CFEBCC#);   6.00000E+03   N !
 FUNCTION XFEBCC     2.98150E+02  +1*EXP(.7874195*DFEBCC#)-1;   6.00000E+03  
      N !
 FUNCTION AFEBCC     2.98150E+02  +2.3987E-05*T+1.2845E-08*T**2;   
     6.00000E+03   N !
 FUNCTION CFEBCC     2.98150E+02  +2.20949565E-11+2.41329523E-16*T;   
     6.00000E+03   N !
 FUNCTION DFEBCC     2.98150E+02  +1*LN(BFEBCC#);   6.00000E+03   N !
 FUNCTION BFEBCC     2.98150E+02  +1+2.80599565E-11*P+3.06481523E-16*T*P;   
     6.00000E+03   N ! 
 FUNCTION GFEFCC     2.98140E+02  -1462.4+8.282*T-1.15*T*LN(T)+6.4E-04*T**2
     +GHSERFE#;  1.81100E+03  Y
      -27098.266+300.25256*T-46*T*LN(T)+2.78854E+31*T**(-9);  6.00000E+03  N 
     !
 FUNCTION GPFEFCC    2.98150E+02  +YFEFCC#*EXP(ZFEFCC#);   6.00000E+03   N !
 FUNCTION YFEFCC     2.98150E+02  +VFEFCC#*EXP(-EFEFCC#);   6.00000E+03   N !
 FUNCTION ZFEFCC     2.98150E+02  +1*LN(XFEFCC#);   6.00000E+03   N !
 FUNCTION VFEFCC     2.98150E+02  +6.688726E-06*EXP(AFEFCC#);   6.00000E+03  
      N !
 FUNCTION EFEFCC     2.98150E+02  +1*LN(CFEFCC#);   6.00000E+03   N !
 FUNCTION XFEFCC     2.98150E+02  +1*EXP(.8064454*DFEFCC#)-1;   6.00000E+03  
      N !
 FUNCTION AFEFCC     2.98150E+02  +7.3097E-05*T;   6.00000E+03   N !
 FUNCTION CFEFCC     2.98150E+02  +2.62285341E-11+2.71455808E-16*T;   
     6.00000E+03   N !
 FUNCTION DFEFCC     2.98150E+02  +1*LN(BFEFCC#);   6.00000E+03   N !
 FUNCTION BFEFCC     2.98150E+02  +1+3.25236341E-11*P+3.36607808E-16*T*P;   
     6.00000E+03   N ! 
 FUNCTION GPFEHCP    2.98150E+02  +YFEHCP#*EXP(ZFEHCP#);   6.00000E+03   N !
 FUNCTION YFEHCP     2.98150E+02  +VFEHCP#*EXP(-EFEHCP#);   6.00000E+03   N !
 FUNCTION ZFEHCP     2.98150E+02  +1*LN(XFEHCP#);   6.00000E+03   N !
 FUNCTION VFEHCP     2.98150E+02  +6.59121E-06*EXP(AFEHCP#);   6.00000E+03   
     N !
 FUNCTION EFEHCP     2.98150E+02  +1*LN(CFEHCP#);   6.00000E+03   N !
 FUNCTION XFEHCP     2.98150E+02  +1*EXP(.8064454*DFEHCP#)-1;   6.00000E+03  
      N !
 FUNCTION AFEHCP     2.98150E+02  +7.3646E-05*T;   6.00000E+03   N !
 FUNCTION CFEHCP     2.98150E+02  +2.62285341E-11+2.71455808E-16*T;   
     6.00000E+03   N !
 FUNCTION DFEHCP     2.98150E+02  +1*LN(BFEHCP#);   6.00000E+03   N !
 FUNCTION BFEHCP     2.98150E+02  +1+3.25236341E-11*P+3.36607808E-16*T*P;   
     6.00000E+03   N !
 FUNCTION GFE2TI     2.98150E+02  -85500+410.041*T-73.5531*T*LN(T)
     -0.01017*T**2+124212.42*T**(-1);   6.00000E+03   N !
 FUNCTION GFETI      2.98150E+02  -60056.005+8.99*T;   6.00000E+03   N !
 
 FUNCTION GHSERTI    2.98150E+02  -8059.921+133.687208*T-23.9933*T*LN(T)
     -.004777975*T**2+1.06716E-07*T**3+72636*T**(-1);  9.00000E+02  Y
      -7811.815+133.060068*T-23.9887*T*LN(T)-.0042033*T**2-9.0876E-08*T**3
     +42680*T**(-1);  1.15500E+03  Y
      +908.837+67.048538*T-14.9466*T*LN(T)-.0081465*T**2+2.02715E-07*T**3
     -1477660*T**(-1);  1.94100E+03  Y
      -124526.786+638.878871*T-87.2182461*T*LN(T)+.008204849*T**2
     -3.04747E-07*T**3+36699805*T**(-1);  4.00000E+03  N !
 FUNCTION GTILIQ    2.98150E+02   +4134.494+126.7062*T
  -23.9933*T*LN(T)-.004777975*T**2+1.06716E-07*T**3+72636*T**(-1);  
  9.00000E+02  Y
   +4382.601+126.0791*T-23.9887*T*LN(T)-.0042033*T**2-9.0876E-08*T**3
  +42680*T**(-1);  1.15500E+03  Y
   +13103.253+60.0676*T-14.9466*T*LN(T)-.0081465*T**2+2.02715E-07*T**3
  -1477660*T**(-1);  1.30000E+03  Y
   +369519.198-2553.9505*T+342.059267*T*LN(T)-.163409355*T**2
  +1.2457117E-05*T**3-67034516*T**(-1);  1.94100E+03  Y
   -19887.066+298.8087*T-46.29*T*LN(T);  4.00000E+03  N  !
 FUNCTION GTIFCC     2.98150E+02  +6000-.1*T+GHSERTI#;   6.00000E+03   N !
 FUNCTION GTIBCC     2.98150E+02  -1272.064+134.78618*T
  -25.5768*T*LN(T)-6.63845E-04*T**2-2.78803E-07*T**3+7208*T**(-1);  
  1.15500E+03  Y
   +6667.385+105.438379*T-22.3771*T*LN(T)+.00121707*T**2-8.4534E-07*T**3
  -2002750*T**(-1);  1.94100E+03  Y
   +26483.26-182.354471*T+19.0900905*T*LN(T)-.02200832*T**2
  +1.228863E-06*T**3+1400501*T**(-1);  4.00000E+03  N  !
   
 FUNCTION GHSERBI  298.15  -7817.776+128.418925*T-28.4096529*T*LN(T)
       +.012338888*T**2-8.381598E-06*T**3;  5.44550E+02  Y
        +30208.022-393.650351*T+51.8556592*T*LN(T)-.075311163*T**2
       +1.3499885E-05*T**3-3616168*T**(-1)+1.66145E+25*T**(-9); 
       8.00000E+02  Y
        -11045.664+182.548971*T-35.9824*T*LN(T)+.0074266*T**2
       -1.046E-06*T**3+1.66145E+25*T**(-9);  1.20000E+03  Y
        -7581.312+124.77144*T-27.196*T*LN(T)+1.66145E+25*T**(-9); 
       3.00000E+03  N !
 FUNCTION GBILIQ    2.98150E+02    +3428.29+107.782416*T
  -28.4096529*T*LN(T)+.012338888*T**2-8.381598E-06*T**3-5.9549E-19*T**7;  
  5.44550E+02  Y
   +41544.282-414.460769*T+51.8556592*T*LN(T)-.075311163*T**2
  +1.3499885E-05*T**3-3616168*T**(-1);  8.00000E+02  Y
   +290.595+161.738553*T-35.9824*T*LN(T)+.0074266*T**2-1.046E-06*T**3;  
  1.20000E+03  Y
   +3754.947+103.961021*T-27.196*T*LN(T);  3.00000E+03  N  !
 FUNCTION GBIFCC     2.98150E+02   +2082.224+115.918925*T
  -28.4096529*T*LN(T)+.012338888*T**2-8.381598E-06*T**3;  5.44550E+02  Y
   +40108.022-406.150351*T+51.8556592*T*LN(T)-.075311163*T**2
  +1.3499885E-05*T**3-3616168*T**(-1)+1.66145E+25*T**(-9);  8.00000E+02  Y
   -1145.664+170.048971*T-35.9824*T*LN(T)+.0074266*T**2-1.046E-06*T**3
  +1.66145E+25*T**(-9);  1.20000E+03  Y
   +2318.688+112.27144*T-27.196*T*LN(T)+1.66145E+25*T**(-9);  3000 N !  
 FUNCTION GBIBCC     2.98150E+02  +3479.224+114.518925*T
  -28.4096529*T*LN(T)+.012338888*T**2-8.381598E-06*T**3;  5.44550E+02  Y
   +41505.022-407.550351*T+51.8556592*T*LN(T)-.075311163*T**2
  +1.3499885E-05*T**3-3616168*T**(-1)+1.66145E+25*T**(-9);  8.00000E+02  Y
   +251.336+168.648971*T-35.9824*T*LN(T)+.0074266*T**2-1.046E-06*T**3
  +1.66145E+25*T**(-9);  1.20000E+03  Y
   +3715.688+110.87144*T-27.196*T*LN(T)+1.66145E+25*T**(-9);  3.00000E+03  N !   
 FUNCTION GBIHCP     2.98150E+02  2.98150E+02  +2082.224+116.618925*T
  -28.4096529*T*LN(T)+.012338888*T**2-8.381598E-06*T**3;  5.4455E+02  Y
   +40108.022-405.450351*T+51.8556592*T*LN(T)-.075311163*T**2
  +1.3499885E-05*T**3-3616168*T**(-1)+1.66145E+25*T**(-9);  8.00E+02  Y
   -1145.664+170.748971*T-35.9824*T*LN(T)+.0074266*T**2
  -1.046E-06*T**3+1.66145E+25*T**(-9);  1.200E+03  Y
   +2318.688+112.97144*T-27.196*T*LN(T)+1.66145E+25*T**(-9);  3.00E+03  N !
   
 FUNCTION ZERO       298.15 0.0; 6000.00  N !

 FUNCTION UN_ASS 298.15 0; 300 N !
 
 TYPE_DEFINITION % SEQ *!
 DEFINE_SYSTEM_DEFAULT ELEMENT 2 !
 DEFAULT_COMMAND DEF_SYS_ELEMENT VA /- !
 
$--------------------------LIQUID------------------------------------
 PHASE LIQUID:L %  1  1.0  !
    CONSTITUENT LIQUID:L :FE,TI,BI :  !
	
  PARAMETER G(LIQUID,FE;0)  2.98150E+02  +GFELIQ#+GPFELIQ#;   6.00000E+03  N  !
  PARAMETER G(LIQUID,TI;0)  2.98140E+02  +GTILIQ#;  4.00000E+03 N !
  PARAMETER G(LIQUID,BI;0)  2.98140E+02  +GBILIQ#;  3.00000E+03 N !
  PARAMETER G(LIQUID,FE,TI;0)  2.98150E+02  -74300+17.839*T;  6.00000E+03  N  !
  PARAMETER G(LIQUID,FE,TI;1)  2.98150E+02  8299.849-6.101*T;  6.00000E+03 N!
  PARAMETER G(LIQUID,BI,FE;0)  2.98150E+02  +62327.74-4.3931*T; 
 6.00000E+03   N  !
  PARAMETER G(LIQUID,BI,FE;1)  2.98150E+02  -3362.48;   6.00000E+03   N  !
  PARAMETER G(LIQUID,BI,TI;0)  2.98150E+02  -43216.537+26.975*T; 
 6.00000E+03  N !
  PARAMETER G(LIQUID,BI,TI;1)  2.98150E+02  43171.650-27.757*T;  
 6.00000E+03  N !
  PARAMETER G(LIQUID,BI,TI;2)  2.98150E+02  -1836.172+5.028*T;  
 6.00000E+03  N !

$------------------------FCC_A1---------------------------------------
   TYPE_DEFINITION ' GES A_P_D FCC_A1 MAGNETIC  -3.0    2.80000E-01 !
 PHASE FCC_A1  %'  2 1   1 !
    CONSTITUENT FCC_A1  :FE%,TI,BI : VA% :  !

  PARAMETER G(FCC_A1,FE:VA;0)  2.98150E+02  +GFEFCC#+GPFEFCC#;  
 6.00000E+03   N  !
  PARAMETER TC(FCC_A1,FE:VA;0)  2.98150E+02  -201;   6.00000E+03   N !
  PARAMETER BMAGN(FCC_A1,FE:VA;0)  2.98150E+02  -2.1;   6.00000E+03   N  !
  PARAMETER G(FCC_A1,TI:VA;0)  2.98150E+02  +GTIFCC#;  6.00000E+03   N  !
  PARAMETER G(FCC_A1,BI:VA;0)  2.98150E+02  +GBIFCC#;  3.00000E+03   N  ! 
  PARAMETER G(FCC_A1,FE,TI:VA;0)  2.98150E+02  -52149.856+9.265*T; 
 6.00000E+03 N !
  PARAMETER G(FCC_A1,FE,TI:VA;1)  2.98150E+02  4755.899-4.982*T;
 6.00000E+03  N ! 
  PARAMETER G(FCC_A1,FE,TI:VA;2)  2.98150E+02  29205.228-11.046*T;  
 6.00000E+03  N !
  PARAMETER G(FCC_A1,FE,BI:VA;0)  2.98150E+02  +44480;  6.00000E+03  N !
  
$------------------------BCC_A2---------------------------------------
   TYPE_DEFINITION & GES A_P_D BCC_A2 MAGNETIC  -1.0    4.00000E-01 !
 PHASE BCC_A2  %&  2 1   3 !
    CONSTITUENT BCC_A2  :FE%,TI%,BI : VA% :  !
   
  PARAMETER G(BCC_A2,FE:VA;0)  2.98150E+02  +GHSERFE#+GPFEBCC#;   
 6.00000E+03   N !
  PARAMETER TC(BCC_A2,FE:VA;0)  2.98150E+02  1043;   6.00000E+03   N !
  PARAMETER BMAGN(BCC_A2,FE:VA;0)  2.98150E+02  2.22;   6.00000E+03   N !
  PARAMETER G(BCC_A2,TI:VA;0)  2.98150E+02  +GTIBCC#;  4.00000E+03  N !
  PARAMETER G(BCC_A2,BI:VA;0)  2.98150E+02  +GBIBCC#;  3.00000E+03  N !
  PARAMETER TC(BCC_A2,FE,TI:VA;0)  2.98150E+02  -2000;   6.00000E+03   N !
  PARAMETER G(BCC_A2,FE,TI:VA;0)  2.98150E+02  -69241.924+25.246*T
 +0.0001*T**2+120000*T**(-1);   6.00000E+03  N  !
  PARAMETER G(BCC_A2,FE,TI:VA;1)  2.98150E+02  +5018.986-4.992*T;   
 6.00000E+03   N  !
  PARAMETER G(BCC_A2,FE,TI:VA;2)  2.98150E+02  +23028.241-13.109*T;   
 6.00000E+03   N  !
  PARAMETER G(BCC_A2,BI,FE:VA;0)  2.98150E+02  +39295.21+3.388*T;   
 6.00000E+03   N  !
  PARAMETER G(BCC_A2,BI,TI:VA;0)  2.98150E+02  -39506.070+21.878*T;
 6.00000E+03   N  !
  PARAMETER G(BCC_A2,BI,TI:VA;1)  2.98150E+02  36273.599-29.00*T;
 6.00000E+03   N  !
 
$-------------------------HCP_A3------------------------------------------
   TYPE_DEFINITION + GES A_P_D HCP_A3 MAGNETIC  -3.0    2.80000E-01 !
 PHASE HCP_A3  %+  2 1   .5 !
    CONSTITUENT HCP_A3  :FE,TI%,BI : VA% :  !
	
  PARAMETER G(HCP_A3,FE:VA;0)  2.98140E+02  -3705.78+12.591*T-1.15*T*LN(T)
  +6.4E-04*T**2+GHSERFE#+GPFEHCP#;  1.81100E+03  Y
   -3957.199+5.24951*T+4.9251E+30*T**(-9)+GHSERFE#+GPFEHCP#;  6.00000E+03  N !
  PARAMETER G(HCP_A3,TI:VA;0)  2.98150E+02  +GHSERTI#;   6.00000E+03   N  !
  PARAMETER G(HCP_A3,BI:VA;0)  2.98150E+02  +GBIHCP#;   6.00000E+03   N  !
  PARAMETER G(HCP_A3,FE,TI:VA;0)  2.98150E+02  -25000+35.004*T;   
 6.00000E+03  N  !
  PARAMETER G(HCP_A3,BI,FE:VA;0)  2.98150E+02  +100000;  6.00000E+03   N  !
  PARAMETER G(HCP_A3,BI,TI:VA;0)  298.15   -10814.691+11.091*T;  6000  N  !
  
$-----------------------RHOMBO_A7------------------------------------------
 PHASE RHOMBO_A7  %  1  1.0  !
    CONSTITUENT RHOMBO_A7  :FE,TI,BI% :  !

  PARAMETER G(RHOMBO_A7,BI;0)  2.98150E+02  +GHSERBI#;  3.00000E+03  N  !
  PARAMETER G(RHOMBO_A7,TI;0)  2.98150E+02  +GHSERTI#+5000;  6.00000E+03  N  !
  PARAMETER G(RHOMBO_A7,FE;0)  2.98150E+02  +GHSERFE#+5000;   6.00000E+03  N  !
  PARAMETER G(RHOMBO_A7,BI,FE;0)  2.98150E+02  +22800;   6.00000E+03   N  !
  PARAMETER G(RHOMBO_A7,BI,TI;0)  2.98150E+02  +18246.46;  6.00000E+03  N  !


$------------------------BCC_B2---------------------------------------
   TYPE_DEFINITION ) GES A_P_D BCC_B2 MAGNETIC  -1.0    4.00000E-01 !                  
 TYPE_DEFINITION B GES AMEND_PHASE_DESCRIPTION BCC_B2 DIS_PART BCC_A2,,,!
 TYPE_DEFINITION A GES A_P_D BCC_B2 C_S 2 TI TI:FE:VA !
 PHASE BCC_B2  %)AB  3 .5   .5   3 !
    CONSTITUENT BCC_B2  :FE%,TI%,BI: FE%,TI%,BI: VA% :  !

   PARAMETER G(BCC_B2,FE:FE:VA;0) 298.15 0; 6000 N!
   PARAMETER G(BCC_B2,FE:TI:VA;0)  2.98150E+02  +.5*GFETI#;   6.00000E+03   
  N    !
   PARAMETER G(BCC_B2,TI:FE:VA;0)  2.98150E+02  +.5*GFETI#;   6.00000E+03   
  N   !
   PARAMETER G(BCC_B2,TI:TI:VA;0)  2.98150E+02  0;   6.00000E+03   N !
     
   PARAMETER G(BCC_B2,FE,TI:FE:VA;1)  2.98150E+02  -5001.50015; 6.00000E+03 
  N  !
   PARAMETER G(BCC_B2,FE:FE,TI:VA;1)  2.98150E+02  -5001.50015;   6.00000E+03
  N  !
   PARAMETER G(BCC_B2,TI:FE,TI:VA;1)  2.98150E+02  11000;   6.00000E+03   N  !
   PARAMETER G(BCC_B2,FE,TI:TI:VA;1)  2.98150E+02  11000;   6.00000E+03   N   !

$--------------------------C14_LAVES-----------------------------------------
 PHASE C14_LAVES  %  2 2   1 !
    CONSTITUENT C14_LAVES  :FE,TI : FE,TI :  !

  PARAMETER G(C14_LAVES,FE:FE;0)  2.98150E+02  +15000+3*GHSERFE#;
 6.00000E+03  N  !
  PARAMETER G(C14_LAVES,TI:TI;0)  2.98150E+02  +15000+3*GHSERTI#;
 6.00000E+03  N  !
  PARAMETER G(C14_LAVES,TI:FE;0)  2.98150E+02  +3*GHSERFE#+3*GHSERTI#+30000
 -GFE2TI#;   6.00000E+03   N    !
  PARAMETER G(C14_LAVES,FE:TI;0)  2.98150E+02  +GFE2TI#;   6.00000E+03   N  !
  
$--------------------------BITI3-----------------------------------------
 PHASE BITI3  %  2 0.25   0.75 !
    CONSTITUENT BITI3  :BI : TI :  !
   PARAMETER G(BITI3,BI:TI;0)  298.15  -10723.603-0.8105*T+0.25*GHSERBI
  +0.75*GHSERTI;  6000  N  !


$--------------------------BITI2----------------------------------------- 
 PHASE BITI2  %  2 0.3333333   0.6666667 !
    CONSTITUENT BITI2  :BI : TI :  !
   PARAMETER G(BITI2,BI:TI;0)  298.15  -13704.337-0.0952*T+0.3333333*GHSERBI
  +0.6666667*GHSERTI;  6000  N  !


$--------------------------BI2TI3----------------------------------
 PHASE BI2TI3  %  2 0.4   0.6 !
    CONSTITUENT BI2TI3  :BI : TI :  !
   PARAMETER G(BI2TI3,BI:TI;0)  298.15  -15741.572+1.050*T+0.4*GHSERBI
  +0.6*GHSERTI;  6000  N  !
  
$--------------------------BI9TI8-----------------------------------------
 PHASE BI9TI8  %  2 0.5294118   0.4705882 !
    CONSTITUENT BI9TI8  :BI : TI :  !
   PARAMETER G(BI9TI8,BI:TI;0)  298.15  -16800.00+1.359*T+0.5294118*GHSERBI
  +0.4705882*GHSERTI;  6000  N   !
  
$--------------------------BI2TI-----------------------------------------
 PHASE BI2TI  %  2 0.6666667   0.3333333 !
    CONSTITUENT BI2TI  :BI : TI :  !
   PARAMETER G(BI2TI,BI:TI;0)  298.15  -12923.29+1.088*T+0.6666667*GHSERBI
  +0.3333333*GHSERTI;   6000  N  !
 
$--------------------------BI2FETI4-----------------------------------------
 PHASE BI2FETI4  %  3 0.2857143  0.1428571  0.5714286 !
    CONSTITUENT BI2FETI4  : BI : FE : TI: !
   PARAMETER G(BI2FETI4,BI:FE:TI;0)  2.98150E+02  -25723.65+2.143*T
  +0.2857143*GHSERBI#+0.1428571*GHSERFE#+0.5714286*GHSERTI#;
  6.00000E+03  N  !

  

 