$
 ELEMENT /-   ELECTRON_GAS              0.0000E+00  0.0000E+00  0.0000E+00 !
 ELEMENT VA   VACUUM                    0.0000E+00  0.0000E+00  0.0000E+00 !
 ELEMENT C    GRAPHITE                  1.2011E+01  1.0540E+03  5.7400E+00 !
 ELEMENT MO   BCC_A2                    9.5940E+01  4.5890E+03  2.8560E+01 !
 ELEMENT N    1/2_MOLE_N2(GAS)          1.4007E+01  4.3350E+03  9.5751E+01 !
 ELEMENT W    BCC_A2                    1.8385E+02  4.9700E+03  3.2620E+01 !
$
 SPECIES C1N1                        C1N1!
 SPECIES C2                          C2!
 SPECIES C2N1                        C2N1!
 SPECIES C2N2                        C2N2!
 SPECIES C3                          C3!
 SPECIES C4                          C4!
 SPECIES C4N2                        C4N2!
 SPECIES C5                          C5!
 SPECIES MO1N1                       MO1N1 !
 SPECIES MO2                         MO2 !
 SPECIES N2                          N2 !
 SPECIES N3                          N3 !
$ -------------------------  C  --------------------------
 FUNCTION GHSERCC   298.15 -17368.441+170.73*T-24.3*T*LN(T)-4.723E-04*T**2
     +2562600*T**(-1)-2.643E+08*T**(-2)+1.2E+10*T**(-3); 6000 N !
 FUNCTION GLIQCC    298.15 +GHSERCC+117369-24.63*T; 6000 N !
$ -------------------------  MO  --------------------------
 FUNCTION GHSERMO      298.15
    -7746.302+131.9197*T-23.56414*T*LN(T)-3.443396E-3*T**2+0.566283E-6*T**3
    +65812*T**(-1)-0.130927E-9*T**4;                              2896.00 Y
    -30556.41+283.559746*T-42.63829*T*LN(T)-4849.315E30*T**(-9);  5000.00 N !
 FUNCTION GLIQMO      298.15
    +34085.045+117.224788*T-23.56414*T*LN(T)-3.443396E-3*T**2+0.566283E-6*T**3
    +65812*T**(-1)-0.130927E-9*T**4+424.519E-24*T**7;             2896.00 Y
    +3538.963+271.6697*T-42.63829*T*LN(T);                        5000.00 N !
 FUNCTION GFCCMO      298.15
    +7453.698+132.5497*T-23.56414*T*LN(T)-3.443396E-3*T**2+0.566283E-6*T**3
    +65812*T**(-1)-0.130927E-9*T**4;                              2896.00 Y
    -15356.41+284.189746*T-42.63829*T*LN(T)-4849.315E30*T**(-9);  5000.00 N !
 FUNCTION GHCPMO    298.15 +GHSERMO+11550; 5000 N !
$ -------------------------  W  --------------------------
 FUNCTION GHSERWW   298.15 -7646.311+130.4*T-24.1*T*LN(T)-.001936*T**2
     +2.07E-07*T**3+44500*T**(-1)-5.33E-11*T**4; 3695 Y
      -82868.801+389.362335*T-54*T*LN(T)+1.528621E+33*T**(-9); 6000 N !
 FUNCTION GLIQWW    298.15 +GHSERWW+52160.584-14.10999*T-2.713468E-24*T**7;
     3695 Y
      -30436.051+375.175*T-54*T*LN(T); 6000 N !
 FUNCTION GFCCWW    298.15 +GHSERWW+19300+.63*T; 6000 N !
 FUNCTION GHCPWW    298.15 +GHSERWW+14750; 6000 N !
$ -------------------------  N  --------------------------
 FUNCTION GHSERNN   298.15 -3750.675-9.45425*T-12.7819*T*LN(T)
     -.00176686*T**2+2.681E-09*T**3-32374*T**(-1); 950 Y
      -7358.85+17.2003*T-16.3699*T*LN(T)-6.5107E-04*T**2+3.0097E-08*T**3
     +563070*T**(-1); 3350 Y
      -16392.8+50.26*T-20.4695*T*LN(T)+2.39754E-04*T**2-8.333E-09*T**3
     +4596375*T**(-1); 6000 N !
 FUNCTION GLIQNN    298.15 +GHSERNN+29950+59.02*T;      6000 N !
$ -------------------------  GAS  --------------------------
  FUNCTION F2216T    298.15 +710394.885-17.1679458*T-21.05667*T*LN(T)
      +2.5592375E-04*T**2-3.89869667E-08*T**3+3749.6235*T**(-1); 2950 Y
       +714168.343-42.0175722*T-17.77301*T*LN(T)-8.03841E-04*T**2
      +1.97712167E-08*T**3-427451.65*T**(-1); 6000 N !
  FUNCTION F2539T    298.14 +427716.326-33.1497574*T-25.01388*T*LN(T)
      -.0045546395*T**2+8.71855E-08*T**3-65364.95*T**(-1); 800 Y
       +421269.172+26.8501603*T-33.45409*T*LN(T)-4.482842E-04*T**2
      -1.147218E-07*T**3+781155*T**(-1); 2000 Y
       +453511.596-140.897098*T-11.70369*T*LN(T)-.00689251*T**2
      +2.37960833E-07*T**3-8094450*T**(-1); 4000 Y
       +328827.487+245.72576*T-58.31701*T*LN(T)+8.97037E-04*T**2
      -7.500935E-09*T**3+54794500*T**(-1); 6000 N !
  FUNCTION F2715T    298.15 +819695.9+247.625486*T-70.6845*T*LN(T)
      +.05318765*T**2-1.38587333E-05*T**3+143132.35*T**(-1); 600 Y
       +833213.261-14.2043583*T-28.38346*T*LN(T)-.0038425855*T**2
      +2.31949833E-07*T**3-631001.5*T**(-1); 1600 Y
       +827248.653+25.7355336*T-33.79864*T*LN(T)-.0015026585*T**2
      +3.03298833E-08*T**3+680088.5*T**(-1); 3800 Y
       +824806.46+45.9740871*T-36.47101*T*LN(T)-7.057615E-04*T**2
      -7.60797667E-09*T**3-21149.49*T**(-1); 6000 N !
  FUNCTION F2840T    298.14 +544138.04+2.14334729*T-32.26672*T*LN(T)
      -.03005472*T**2+6.03051E-06*T**3+53910.2*T**(-1); 600 Y
       +533529.095+166.147082*T-57.79234*T*LN(T)-.002181161*T**2
      +1.96141E-07*T**3+896192*T**(-1); 1700 Y
       +527850.364+205.842417*T-63.20392*T*LN(T)+2.214884E-04*T**2
      -1.02046367E-08*T**3+2082069.5*T**(-1); 6000 N !
  FUNCTION F2845T    298.14 +290613.434+119.507254*T-52.03766*T*LN(T)
      -.01774238*T**2+1.79623333E-06*T**3+217898.55*T**(-1); 1200 Y
       +266482.495+328.596851*T-81.46959*T*LN(T)-.001445913*T**2
      +6.77370833E-08*T**3+4001410*T**(-1); 3200 Y
       +257466.204+370.362851*T-86.7929*T*LN(T)-6.629295E-05*T**2
      +1.63403333E-09*T**3+6844415*T**(-1); 6000 N !
  FUNCTION F2880T    298.15 +813443.293-71.1682328*T-24.0006*T*LN(T)
      -.014503795*T**2+1.44955383E-06*T**3-260512.6*T**(-1); 1200 Y
       +796584.138+79.8815695*T-45.39431*T*LN(T)-.0020923765*T**2
      +6.55938167E-08*T**3+2305195.5*T**(-1); 3600 Y
       +783063.645+130.768844*T-51.7042*T*LN(T)-7.593795E-04*T**2
      +1.2239665E-08*T**3+7888700*T**(-1); 6000 N !
  FUNCTION F2928T    298.15 +954375.916+57.3861908*T-39.4542*T*LN(T)
      -.032774525*T**2+4.67478333E-06*T**3+280733.85*T**(-1); 800 Y
       +936579.478+273.735206*T-71.70748*T*LN(T)-.006214745*T**2
      +4.78936167E-07*T**3+2158944*T**(-1); 1800 Y
       +920197.754+383.777939*T-86.57784*T*LN(T)-1.0785975E-04*T**2
      +2.97068833E-09*T**3+5623695*T**(-1); 6000 N !
  FUNCTION F2935T    298.14 +505178.266+249.554301*T-77.19564*T*LN(T)
      -.032306965*T**2+3.55103E-06*T**3+384942.65*T**(-1); 1000 Y
       +477127.139+527.180379*T-117.116*T*LN(T)-.006743855*T**2
      +4.38569E-07*T**3+4119420*T**(-1); 2100 Y
       +452542.745+670.426473*T-136.0499*T*LN(T)-1.581368E-04*T**2
      +4.07757333E-09*T**3+10228920*T**(-1); 6000 N !
  FUNCTION F2944T    298.15 +957810.608+116.233678*T-49.11472*T*LN(T)
      -.04309541*T**2+6.13988833E-06*T**3+461595.6*T**(-1); 800 Y
       +936578.61+379.251196*T-88.4506*T*LN(T)-.01004114*T**2
      +8.27685833E-07*T**3+2652928*T**(-1); 1600 Y
       +913101.816+544.885216*T-111.012*T*LN(T)-1.883959E-04*T**2
      +5.25670167E-09*T**3+7344320*T**(-1); 6000 N !
  FUNCTION F12536T   298.15 +651326.983-41.0946076*T-21.0437*T*LN(T)
      +2.7252545E-04*T**2-4.77857833E-08*T**3+5594.93*T**(-1); 1600 Y
       +633752.125+83.3186556*T-37.98605*T*LN(T)+.007623775*T**2
      -6.52545667E-07*T**3+3471277.5*T**(-1); 3500 Y
       +1134689.66-1617.69443*T+169.6658*T*LN(T)-.03080567*T**2
      +6.87557667E-07*T**3-2.240338E+08*T**(-1); 5000 Y
       +1008188.16-1437.30781*T+150.7395*T*LN(T)-.03086233*T**2
      +7.54569333E-07*T**3-1.0601775E+08*T**(-1); 6200 Y
       -929123.768+2587.60477*T-309.2377*T*LN(T)+.017761425*T**2
      -2.10949167E-07*T**3+1.426406E+09*T**(-1); 10000 N !
  FUNCTION F12561T   298.15 +627396.036-56.3084497*T-26.22577*T*LN(T)
      -.00943658*T**2+1.50349183E-06*T**3+12164.02*T**(-1); 800 Y
       +618560.846+48.6047951*T-41.79662*T*LN(T)+.002987703*T**2
      -3.94851333E-07*T**3+966623*T**(-1); 2900 Y
       +751739.539-508.246659*T+28.2496*T*LN(T)-.013578945*T**2
      +3.477355E-07*T**3-47098360*T**(-1); 6000 N !
  FUNCTION F12544T   298.15 +892320.138+5.95304443*T-37.156*T*LN(T)
      +3.61E-05*T**2-1.10858333E-07*T**3+113615*T**(-1); 1000 Y
       +878307.025+162.383893*T-60.077*T*LN(T)+.0165846*T**2-2.3378E-06*T**3
      +1706980*T**(-1); 1800 Y
       +1105100.83-1223.34666*T+124.219*T*LN(T)-.05020415*T**2
      +2.21706167E-06*T**3-50788800*T**(-1); 3100 Y
       +641365.422+619.744904*T-105.798*T*LN(T)+6.5385E-04*T**2
      +1.02916667E-07*T**3+1.25079E+08*T**(-1); 6000 N !
  FUNCTION F6564T    298.14 +466446.153-13.3752579*T-20.89393*T*LN(T)
      +8.45521E-05*T**2-1.0018685E-08*T**3+2788.7865*T**(-1); 2950 Y
       +481259.036-52.5441357*T-16.37613*T*LN(T)-2.283738E-04*T**2
      -2.78997167E-08*T**3-7559105*T**(-1); 6000 N !
  FUNCTION F6727T    298.14 +403075.637-14.4341342*T-29.55954*T*LN(T)
      -.02413122*T**2+3.61560333E-06*T**3+55714.15*T**(-1); 800 Y
       +388937.205+158.699691*T-55.40453*T*LN(T)-.002657049*T**2
      +1.936565E-07*T**3+1536448.5*T**(-1); 2000 Y
       +380897.998+210.097898*T-62.29558*T*LN(T)+6.572645E-06*T**2
      -7.86801167E-10*T**3+3336949*T**(-1); 6000 N !
 FUNCTION RTLNP     298.15  8.3145*T*LN(1E-05*P);       6000 N !
$ 
 TYPE_DEFINITION % SEQ *!
 DEFINE_SYSTEM_DEFAULT ELEMENT 2 !
 DEFAULT_COMMAND DEF_SYS_ELEMENT VA /- !
$
$ ----------------  GAS  ----------------
 PHASE GAS %  1  1.0  !
 CONSTITUENT GAS :C,C1N1,C2,C2N1,C2N2,C3,C4,C4N2,C5,MO,MO1N1,MO2,N,N2,N3 :  !
  PARAMETER G(GAS,C;0)          298.15  +F2216T+RTLNP;               6000 N !
  PARAMETER G(GAS,C1N1;0)       298.15  +F2539T+RTLNP;               6000 N !
  PARAMETER G(GAS,C2;0)         298.15  +F2715T+RTLNP;               6000 N !
  PARAMETER G(GAS,C2N1;0)       298.15  +F2840T+RTLNP;               6000 N !
  PARAMETER G(GAS,C2N2;0)       298.15  +F2845T+RTLNP;               6000 N !
  PARAMETER G(GAS,C3;0)         298.15  +F2880T+RTLNP;               6000 N !
  PARAMETER G(GAS,C4;0)         298.15  +F2928T+RTLNP;               6000 N !
  PARAMETER G(GAS,C4N2;0)       298.15  +F2935T+RTLNP;               6000 N !
  PARAMETER G(GAS,C5;0)         298.15  +F2944T+RTLNP;               6000 N !
  PARAMETER G(GAS,MO;0)         298.15  +F12536T+RTLNP;              6000 N !
  PARAMETER G(GAS,MO1N1;0)      298.15  +F12561T+RTLNP;              6000 N !
  PARAMETER G(GAS,MO2;0)        298.15  +F12544T+RTLNP;              6000 N !
  PARAMETER G(GAS,N;0)          298.15  +F6564T+RTLNP;               6000 N !
  PARAMETER G(GAS,N2;0)         298.15  +2*GHSERNN+RTLNP;            6000 N !
  PARAMETER G(GAS,N3;0)         298.15  +F6727T+RTLNP;               6000 N !
$
$ ----------------  LIQUID  ----------------
 PHASE LIQUID  %  1  1.0  !
 CONSTITUENT LIQUID  :C,MO,N,W :  !
  PARAMETER G(LIQUID,C;0)       298.15  +GLIQCC;                     6000 N !
  PARAMETER G(LIQUID,MO;0)      298.15  +GLIQMO;                     6000 N !
  PARAMETER G(LIQUID,N;0)       298.15  +GLIQNN;                     6000 N !
  PARAMETER G(LIQUID,W;0)       298.15  +GLIQWW;                     6000 N !
  PARAMETER L(LIQUID,C,MO;0)    298.15  -217800+38.41*T;             6000 N !
  PARAMETER L(LIQUID,C,MO;1)    298.15  +30000;                      6000 N !
  PARAMETER L(LIQUID,C,MO;2)    298.15  +47000;                      6000 N !
  PARAMETER L(LIQUID,C,W;0)     298.15  -84261;                      6000 N !
  PARAMETER L(LIQUID,C,W;1)     298.15  +45205;                      6000 N !
  PARAMETER L(LIQUID,C,W;2)     298.15  +43217;                      6000 N !
  PARAMETER L(LIQUID,MO,N;0)    298.15  -198280+37.49*T;             6000 N !
  PARAMETER L(LIQUID,N,W;0)     298.15  -120000;                     6000 N !
  PARAMETER L(LIQUID,C,MO,W;0)  298.15  -360000;                     6000 N !
  PARAMETER L(LIQUID,C,MO,W;1)  298.15  +100000;                     6000 N !
  PARAMETER L(LIQUID,C,MO,W;2)  298.15  +126000;                     6000 N !
$
$ ----------------  FCC_A1  ----------------
 PHASE FCC_A1  %  2 1   1 !
 CONSTITUENT FCC_A1  :MO,W :C,N,VA :  !
 PARAMETER G(FCC_A1,MO:VA;0)    298.15  +GFCCMO;                     6000 N !
 PARAMETER G(FCC_A1,MO:C;0)     298.15  +GHSERMO+GHSERCC-7500-8.3*T
                                        -750000*T**(-1);             6000 N !
 PARAMETER G(FCC_A1,MO:N;0)     298.15  +GHSERMO+GHSERNN-65344+149.7*T
                                        -9.78*T*LN(T);               6000 N !
 PARAMETER L(FCC_A1,MO:C,VA;0)  298.15  -41300;                      6000 N !
 PARAMETER L(FCC_A1,MO:N,VA;0)  298.15  -52565;                      6000 N !
 PARAMETER G(FCC_A1,W:VA;0)     298.15  +GFCCWW;                     6000 N !
 PARAMETER G(FCC_A1,W:C;0)      298.15  -14538+272.78*T-45.4249153*T*LN(T)
                                        -.00300357579*T**2+612893.58*T**(-1)
                                        -1.4027703E+09*T**(-3);      6000 N !
 PARAMETER G(FCC_A1,W:N;0)      298.15  -40752.746+259.88468*T
                                        -45.443666*T*LN(T)+237083*T**(-1)
                                        -.0046519123*T**2;           6000 N !
 PARAMETER L(FCC_A1,W:C,VA;0)   298.15  -47079;                      6000 N !
 PARAMETER L(FCC_A1,W:C,VA;1)   298.15  -3385;                       6000 N !
 PARAMETER L(FCC_A1,W:N,VA;0)   298.15  -61824;                      6000 N !
 PARAMETER L(FCC_A1,MO,W:VA;0)  298.15  +2000;                       6000 N !
 PARAMETER L(FCC_A1,MO,W:C;0)   298.15  +3120;                       6000 N !
 PARAMETER L(FCC_A1,MO,W:N;0)   298.15  -6000;                       6000 N !
$
$ ----------------  BCC_A2  ----------------
 PHASE BCC_A2  %  2 1   3 !
 CONSTITUENT BCC_A2  :MO,W :C,N,VA :  !
 PARAMETER G(BCC_A2,MO:VA;0)    298.15  +GHSERMO;                    6000 N !
 PARAMETER G(BCC_A2,MO:C;0)     298.15  +GHSERMO+3*GHSERCC
                                        +331000-75*T;                6000 N !
 PARAMETER G(BCC_A2,MO:N;0)     298.15  +GHSERMO+3*GHSERNN
                                        +299700+79.73*T;             6000 N !
 PARAMETER G(BCC_A2,W:VA;0)     298.15  +GHSERWW;                    6000 N !
 PARAMETER G(BCC_A2,W:C;0)      298.15  +GHSERWW+3*GHSERCC
                                        +375100-35.87*T;             6000 N !
 PARAMETER G(BCC_A2,W:N;0)      298.15  +268828.908+444.620024*T
                                        -72.7446506*T*LN(T)+1079965*T**(-1)
                                        -.0251743468*T**2;           6000 N !
 PARAMETER L(BCC_A2,W:N,VA;0)   298.15  +83285-69.977*T;             6000 N !
 PARAMETER L(BCC_A2,MO,W:VA;0)  298.15  +2000;                       6000 N !
 PARAMETER L(BCC_A2,MO,W:C;0)   298.15  +2000;                       6000 N !
$
$ ----------------  HCP_A3  ----------------
 PHASE HCP_A3  %  2 1  0.5 !
 CONSTITUENT HCP_A3  :MO,W :C,N,VA :  !
 PARAMETER G(HCP_A3,MO:VA;0)    298.15  +GHCPMO;                     6000 N !
 PARAMETER G(HCP_A3,MO:C;0)     298.15  +GHSERMO+0.5*GHSERCC-24150
                                        -3.625*T-163000*T**(-1);     6000 N !
 PARAMETER G(HCP_A3,MO:N;0)     298.15  +GHSERMO+0.5*GHSERNN
                                        -29450+28.7*T;               6000 N !
 PARAMETER L(HCP_A3,MO:C,VA;0)  298.15  +4150;                       6000 N !
 PARAMETER G(HCP_A3,W:VA;0)     298.15  +GHCPWW;                     6000 N !
 PARAMETER G(HCP_A3,W:C;0)      298.15  -26482+227.92*T-38.4900552*T*LN(T)
                                        -.00158398286*T**2+501839.27*T**(-1)
                                        -1.56907923E+09*T**(-3);     6000 N !
 PARAMETER G(HCP_A3,W:N;0)      298.15  -12811.336+186.68879*T
                                        -34.217887*T*LN(T)+105601*T**(-1)
                                        -.004509875*T**2;            6000 N !
 PARAMETER L(HCP_A3,W:C,VA;0)   298.15  +29395-8.8505*T;             6000 N !
 PARAMETER L(HCP_A3,MO,W:VA;0)  298.15  +2000;                       6000 N !
 PARAMETER L(HCP_A3,MO,W:C;0)   298.15  +3120;                       6000 N !
$
$ ----------------  MC_ETA  ----------------
 PHASE MC_ETA  %  2 1   1 !
 CONSTITUENT MC_ETA  :MO,W :C,VA :  !
 PARAMETER G(MC_ETA,MO:VA;0)    298.15  +GHSERMO+15200+0.63*T;       6000 N !
 PARAMETER G(MC_ETA,MO:C;0)     298.15  +GHSERMO+GHSERCC-9100-5.35*T
                                        -750000*T**(-1);             6000 N !
 PARAMETER L(MC_ETA,MO:C,VA;0)  298.15  -59500;                      6000 N !
 PARAMETER G(MC_ETA,W:VA;0)     298.15  +GHSERWW+19300+0.63*T;       6000 N !
 PARAMETER G(MC_ETA,W:C;0)      298.15  -13874+272.78*T-45.4249153*T*LN(T)
                                        -.00300357579*T**2+612893.58*T**(-1)
                                        -1.4027703E+09*T**(-3);      6000 N !
 PARAMETER L(MC_ETA,W:C,VA;0)   298.15  -47079;                      6000 N !
 PARAMETER L(MC_ETA,W:C,VA;1)   298.15  -3885;                       6000 N !
 PARAMETER L(MC_ETA,MO,W:VA;0)  298.15  +2000;                       6000 N !
 PARAMETER L(MC_ETA,MO,W:C;0)   298.15  +3000;                       6000 N !
$
$ ----------------  MC_SHP  ----------------
 PHASE MC_SHP  %  2 1   1 !
 CONSTITUENT MC_SHP  :MO,W :C,N :  !
 PARAMETER G(MC_SHP,MO:C;0)     298.15  +GHSERMO+GHSERCC
                                        -32983+2.5*T;                6000 N !
 PARAMETER G(MC_SHP,MO:N;0)     298.15  -65897+276.75741*T-45.6523426*T*LN(T)
                                        -0.00302837129*T**2+450481*T**(-1);
                                                                     6000 N !
 PARAMETER G(MC_SHP,W:C;0)      298.15  -57142+281.088*T-45.4249153*T*LN(T)
                                        -.00300357579*T**2+612893.58*T**(-1)
                                        -1.4027703E+09*T**(-3);      6000 N !
 PARAMETER G(MC_SHP,W:N;0)      298.15  -65519.085+272.76021*T
                                        -45.64545*T*LN(T)+392513*T**(-1)
                                        -0.0035306184*T**2;          6000 N !
 PARAMETER L(MC_SHP,MO:C,N;0)   298.15  -78789;                      6000 N !
 PARAMETER L(MC_SHP,MO,W:C;0)   298.15  -2200;                       6000 N !
$
$ ----------------  GRAPHITE  ----------------
 PHASE GRAPHITE  %  1  1 !
 CONSTITUENT GRAPHITE  :C :  !
 PARAMETER G(GRAPHITE,C;0)      298.15  +GHSERCC;                    6000 N !
$ ------------------------------------------
 DATABASE-INFO 'FOR THE C-MO-W-N SYSTEM' !