 ELEMENT /-   ELECTRON_GAS    0.0000E+00    0.0000E+00  0.0000E+00!
 ELEMENT VA   VACUUM          0.0000E+00    0.0000E+00  0.0000E+00!
 ELEMENT CU   FCC_A1          6.3546E+01    5.0041E+03  3.3150E+01!
 ELEMENT FE   BCC_A2          5.5847E+01    4.4890E+03  2.7280E+01!
 ELEMENT ZR   HCP_A3          9.1224E+01    5.5663E+03  3.9181E+01!


 




 FUNCTION GHSERZR   130.00  
	-7827.595+125.64905*T-24.1618*T*LN(T)
	-.00437791*T**2+34971*T**(-1);  
	2128	Y
      	-26085.921+262.724183*T-42.144*T*LN(T)
	-1.342895E+31*T**(-9);  
     	6000	N !
 FUNCTION GHSERFE  298.15
	+1225.7+124.134*T-23.5143*T*LN(T)-.00439752*T**2
	-5.8927E-08*T**3+77359*T**(-1);  	
	1811	Y
      	-25383.581+299.31255*T-46*T*LN(T)+2.29603E+31*T**(-9);  
	6000	N !
 FUNCTION GHSERCU  298.15
	-7770.458+130.485235*T-24.112392*T*LN(T)
	-.00265684*T**2+1.29223E-07*T**3+52478*T**(-1);  	
	1357.77	Y
      	-13542.026+183.803828*T-31.38*T*LN(T)
	+3.64167E+29*T**(-9);  
     	3200	N !
 FUNCTION GLIQZR  130.00  
	+18147.703-9.080762*T+1.6275E-22*T**7+GHSERZR#;  
	2128	Y
      	+17804.649-8.91153*T+1.343E+31*T**(-9)+GHSERZR#;  
	6000	N !
 FUNCTION GLIQFE  298.15
	+12040.17-6.55843*T-3.6751551E-21*T**7+GHSERFE#
	+GPFELIQ#;  		
	1811	Y
      	-10839.7+291.302*T-46*T*LN(T)+GPFELIQ#;  
	6000	N !
 FUNCTION GPFELIQ  298.15 
	0.0; 
	6000	N !
 FUNCTION GLIQCU  298.15
	+5194.277+120.973331*T-24.112392*T*LN(T)
	-.00265684*T**2+1.29223E-07*T**3+52478*T**(-1)
	-5.8489E-21*T**7;  
	1357.77	Y
   	-46.545+173.881484*T-31.38*T*LN(T);  
	3200	N !
 FUNCTION GBCCZR  298.15
	-525.539+124.946*T-25.6074*T*LN(T)-3.40084E-04*T**2
	+25233*T**(-1)-9.72897E-09*T**3-7.61429E-11*T**4;  
     	2128	Y
      	-30706+264.284*T-42.144*T*LN(T)+1.27606E+32*T**(-9);  
	4000	N !
 FUNCTION GBCCCU  298.15
	+4017-1.255*T+GHSERCU#;   
	6000	N !
 FUNCTION GFCCFE  298.15
	-1462.4+8.282*T-1.15*T*LN(T)+6.4E-04*T**2
	+GHSERFE#;  
	1811	Y
      	-27098.266+300.25256*T-46*T*LN(T)
	+2.78854E+31*T**(-9);  
	6000	N  !
 FUNCTION GHCPFE  298.15 
	-3705.78+12.591*T-1.15*T*LN(T)+6.4E-04*T**2
	+GHSERFE#;  
	1811	Y
   	-3957.199+5.24951*T+4.9251E+30*T**(-9)+GHSERFE#;  
	6000	N !
 FUNCTION UN_ASS  298.15 
	0; 
	300	N !









 
 TYPE_DEFINITION % SEQ *!
 DEFINE_SYSTEM_DEFAULT ELEMENT 2 !
 DEFAULT_COMMAND DEF_SYS_ELEMENT VA /- !




 PHASE LIQUID:L %  1  1.0  !
    CONSTITUENT LIQUID:L :CU,FE,ZR :  !

   PARA	G(LIQUID,ZR;0)		298.15
	+GLIQZR#;   	
	6000   N REF1 !   
   PARA	G(LIQUID,FE;0)		298.15
	+GLIQFE#;   	
	6000	N REF1 !
   PARA	G(LIQUID,CU;0)		298.15
	+GLIQCU#;  
	3200	N REF1 !
   PARA	L(LIQUID,CU,FE;0)		298.15
	+35625.8-2.19045*T;  	
	6000	N REF11 !
   PARA	L(LIQUID,CU,FE;1)		298.15
	-1529.8+1.15291*T;   
	6000	N REF11 !
   PARA	L(LIQUID,CU,FE;2)		298.15
	+12714.4-5.18624*T;  
	6000 	N REF11 !
   PARA	L(LIQUID,CU,FE;3)		298.15
	+1177.1;  
	6000 	N REF11 !
   PARA	L(LIQUID,CU,ZR;0)		298.15
	-140638.632+444.1606*T-51.3121*T*LN(T);   
	6000 	N REF9 !
   PARA	L(LIQUID,CU,ZR;1)		298.15
	-22066.212+84.9923*T-9.6125*T*LN(T);   
	6000 	N REF9 !
   PARA	L(LIQUID,CU,ZR;2)		298.15
	+56633.154-307.3817*T+36.8512*T*LN(T);   
	6000 	N REF9 !
   PARA	L(LIQUID,CU,ZR;3)		298.15
	-22368.721+119.5438*T-13.6488*T*LN(T);   
	6000 	N REF9 !
   PARA	L(LIQUID,FE,ZR;0)		298.15
	-88245.9+21.4*T;  
	6000 	N REF5 !
   PARA	L(LIQUID,FE,ZR;1)		298.15
	-8242.5+T;   
	6000 	N REF5 !
   PARA	L(LIQUID,FE,ZR;2)		298.15
	-10480;  
	6000  	N REF5 !
   PARA	L(LIQUID,CU,FE,ZR;0)	298.15
	-99849.78+9.77*T;  
	6000 	N !
   PARA	L(LIQUID,CU,FE,ZR;1)	298.15 
	+62529.8-9.29*T;    
	6000	 N !
   PARA	L(LIQUID,CU,FE,ZR;2)	298.15
	+69279.53-3.93*T;   
	6000 	N !





 TYPE_DEFINITION & GES A_P_D BCC_A2 MAGNETIC  -1.0    4.00000E-01 !
 PHASE BCC_A2  %&  2 1   3 !
    CONSTITUENT BCC_A2  :CU,FE%,ZR%:VA%:  !

   PARA	G(BCC_A2,ZR:VA;0)		298.15
	+GBCCZR#;  	
	6000 	N REF1 !
   PARA	G(BCC_A2,FE:VA;0)		298.15
	+GHSERFE#;   	
	6000 	N REF1 !
   PARA	TC(BCC_A2,FE:VA;0)	298.15
	+1043;   		
	6000 	N REF1 !
   PARA	BMAGN(BCC_A2,FE:VA;0)	298.15
	+2.22;   		
	6000	 N REF1 !
   PARA	G(BCC_A2,CU:VA;0)		298.15
	+GBCCCU#;   
	6000 	N REF1 !
   PARA	L(BCC_A2,CU,FE:VA;0)	298.15
	+39676-4.73222*T;   
	6000 	N REF11 !
   PARA	L(BCC_A2,CU,ZR:VA;0)	298.15
	+356.954-5.5499*T; 
	6000 	N REF9 !
   PARA	L(BCC_A2,FE,ZR:VA;0)	298.15 
	-12200+4.5*T;   	
	6000	N REF5 !
   PARA	L(BCC_A2,FE,ZR:VA;1)	298.15 
	-3410;   		
	6000 	N REF5 !
   PARA	L(BCC_A2,FE,ZR:VA;2)	298.15  
	-15000;   		
	6000 	N REF5 !




 TYPE_DEFINITION ( GES A_P_D FCC_A1 MAGNETIC  -3.0    2.80000E-01 !
 PHASE FCC_A1  %(  2 1   1 !
    CONSTITUENT FCC_A1  :CU%,FE%,ZR:VA%:  !

   PARA	G(FCC_A1,ZR:VA;0)		298.15
	+7600-.9*T+GHSERZR#;   
	6000 	N !
   PARA	G(FCC_A1,FE:VA;0)		298.15
	+GFCCFE#;  	
	6000 	N REF1 !
   PARA	TC(FCC_A1,FE:VA;0)	298.15
	-201;   		
	6000 	N REF1 !
   PARA	BMAGN(FCC_A1,FE:VA;0)	298.15
	-2.1;   		
	6000 	N REF1 !
   PARA	G(FCC_A1,CU:VA;0)		298.15
	+GHSERCU#;   	
	6000 	N REF1 !
   PARA	L(FCC_A1,CU,FE:VA;0)         	298.15 
	+43319.6-6.94445*T;
	6000 	N REF11 !
   PARA	L(FCC_A1,CU,FE:VA;1)	298.15 
	+6068.8-2.83662*T;
	6000 	N REF11 !
   PARA	L(FCC_A1,CU,FE:VA;2)	298.15 
	+3629.4;
	6000 	N REF11 !
   PARA	L(FCC_A1,CU,ZR:VA;0)	298.15
	+8254.852;   
	6000 	N REF9 !
   PARA	L(FCC_A1,FE,ZR:VA;0)  	298.15
	-22000-3*T;   
	6000 	N REF5 !
   PARA	L(FCC_A1,FE,ZR:VA;1)	298.15
	+10000-6.6*T;   
	6000 	N REF5 !





 TYPE_DEFINITION ) GES A_P_D HCP_A3 MAGNETIC  -3.0    2.80000E-01 !
 PHASE HCP_A3  %)  2 1   .5 !
    CONSTITUENT HCP_A3  :CU,FE,ZR%:VA%:  !

   PARA	G(HCP_A3,ZR:VA;0)		298.15
	+GHSERZR#;   
	6000 	N REF1 !
   PARA	G(HCP_A3,FE:VA;0)		298.15
	+GHCPFE#;  
	6000	N REF1 !
   PARA	G(HCP_A3,CU:VA;0)		298.15
	+600+.2*T+GHSERCU#;   
	6000 	N !
   PARA	L(HCP_A3,FE,ZR:VA;0)	298.15
	+10000;   
	6000 	N REF5 !
   PARA	L(HCP_A3,CU,FE:VA;0)	298.15
	+48232.5-8.60954*T;   
	6000 	N REF10 !
   PARA	L(HCP_A3,CU,FE:VA;1)	298.15
	+8861.88-5.28975*T;   
	6000 	N REF10 !
   PARA	L(HCP_A3,CU,ZR:VA;0)	298.15
	-52576.592+70.9696*T; 
	6000 	N REF9  !





 PHASE FE23ZR6  %  2 .7931   .2069 !
    CONSTITUENT FE23ZR6  :FE%,ZR,CU:ZR%,FE:  !

   PARA	G(FE23ZR6,FE:FE;0)		298.15
	+12956+GHSERFE#;   
	6000	N REF5 !
   PARA	G(FE23ZR6,ZR:FE;0)		298.15
	+33956+.7931*GHSERZR#+.2069*GHSERFE#;   
	6000 	N REF5 !
   PARA	G(FE23ZR6,FE:ZR;0)		298.15
	-24956+4.84*T+.7931*GHSERFE#+.2069*GHSERZR#;   
	6000 	N REF5 !
   PARA	G(FE23ZR6,ZR:ZR;0)		298.15
	+15956+GHSERZR#;   
	6000	N REF5 !
   PARA	G(FE23ZR6,CU:ZR;0)		298.15 
	-38464.806+95.24*T+.7931*GHSERCU#+.2069*GHSERZR#;   
	6000 	N !
   PARA	G(FE23ZR6,CU:FE;0)		298.15
	+24446+.7931*GHSERCU#+.2069*GHSERFE#;   
	6000 	N !
   PARA	L(FE23ZR6,FE,CU:ZR;0)	298.15
	+133265.88-177.06*T;   
	6000 	N !
 




 TYPE_DEFINITION * GES A_P_D LAVES_C15  MAGNETIC  -3.0   2.80000E-01 !
 PHASE LAVES_C15  %*  2 2   1 !
    CONSTITUENT LAVES_C15  :FE,ZR,CU:FE,ZR,CU:  !


   PARA	G(LAVES_C15,FE:FE;0)	298.15
	+16198+3*GHSERFE#;   
	6000 	N REF 5 !
   PARA	G(LAVES_C15,ZR:FE;0)	298.15
	+218548+2*GHSERZR#+GHSERFE#; 
	6000 	N REF 5 !
   PARA	G(LAVES_C15,FE:ZR;0)	298.15
	-111942.9+410.168871*T-72.3373*T*LN(T)
	-.0164760077*T**2+73387.2882*T**(-1);   
	6000 	N REF 5 !
   PARA	TC(LAVES_C15,FE:ZR;0)	298.15
	+584; 
	6000 	N  !
   PARA	BMAGN(LAVES_C15,FE:ZR;0)  298.15
	+1.078; 
	6000   	N  !
   PARA	G(LAVES_C15,ZR:ZR;0)	298.15
	+81154+3*GHSERZR#;   
	6000 	N REF 5 !
   PARA	G(LAVES_C15,CU:CU;0)	298.15
	+45180+3*GHSERCU#;   
	6000 	N !
   PARA	G(LAVES_C15,ZR:CU;0)	298.15
	+170880+2*GHSERZR#+GHSERCU#;  
	6000 	N !
   PARA	G(LAVES_C15,CU:ZR;0)	298.15
	+16590+2*GHSERCU#+GHSERZR#;   
	6000 	N !
   PARA	G(LAVES_C15,CU:FE;0)	298.15
	+152520+2*GHSERCU#+GHSERFE#;   
  	6000 	N !
   PARA	G(LAVES_C15,FE:CU;0)	298.15
	+143610+2*GHSERFE#+GHSERCU#;   
  	6000 	N !
   PARA	L(LAVES_C15,FE:FE,ZR;0)	298.15
	-46600+20*T; 
	6000 	N  REF5 !
   PARA 	L(LAVES_C15,FE,ZR:ZR;0)  	298.15
	-16930; 
	6000   	N  REF5 !
   PARA 	L(LAVES_C15,FE,CU:FE;0)  	298.15
	-62126+46*T;  
	6000 	N !
   PARA 	L(LAVES_C15,FE,CU:ZR;0)  	298.15
	-159895.58+94.34*T; 
	6000   	N !
   PARA 	L(LAVES_C15,FE,CU:ZR;1)  	298.15
	-172438.61+63.96*T; 
	6000   	N !
   PARA 	L(LAVES_C15,FE,CU:ZR;2)  	298.15
	-180109.85+32.81*T; 
	6000   	N !
   PARA 	L(LAVES_C15,FE:ZR,CU;0)  	298.15
	-162914.81+12.089*T; 
	6000   	N !
   PARA 	L(LAVES_C15,FE:ZR,CU;1)  	298.15
	+125232.95-171.83*T; 
	6000   	N !
   PARA 	L(LAVES_C15,FE:ZR,CU;2)  	298.15
	-262831.79+41.42*T; 
	6000   	N !








 PHASE FEZR3  %  2 1   3 !
    CONSTITUENT FEZR3  :FE,ZR,CU:FE,ZR:  !

   PARA	G(FEZR3,FE:FE;0)		298.15
	+556+4*GHSERFE#;   
	6000 	N REF5 !
   PARA	G(FEZR3,ZR:FE;0)		298.15
	+22440+3*GHSERFE#+GHSERZR#;   
	6000 	N REF5 !

   PARA	G(FEZR3,FE:ZR;0)		298.15
	-90136+41.46*T+GHSERFE#+3*GHSERZR#;   
	6000 	N REF5 !
   PARA	G(FEZR3,ZR:ZR;0)		298.15
	+5040+4*GHSERZR#;   
	6000	N REF5 !
  PARA	G(FEZR3,CU:FE;0)		298.15
	+220220.69+GHSERCU#+3*GHSERFE#;   
	6000 	N !
   PARA	G(FEZR3,CU:ZR;0)		298.15
	-15517.89+GHSERCU#+3*GHSERZR#;   
  	6000 	N !
   PARA	L(FEZR3,FE:FE,ZR;0)		298.15
	-14391;   
	6000 	N REF5 !
   PARA	L(FEZR3,FE,ZR:ZR;0)		298.15
	+32200;   
	6000 	N REF5 !
   PARA	L(FEZR3,FE,CU:ZR;0)	298.15
	-213270.13+336.55*T;   
	6000	N !
   PARA	L(FEZR3,FE,CU:ZR;1)	298.15
	+497877.52-182.33*T;   
	6000 	N !
   PARA	L(FEZR3,FE,CU:ZR;2)  	298.15
	-110106.16+184.97*T;   
	6000 	N !






 PHASE CU9ZR2  %  2 0.818   0.182 !
    CONSTITUENT CU9ZR2  :CU:ZR:  !

   PARA	G(CU9ZR2,CU:ZR;0)		298.15
	-9410.421-0.40907*T+0.818*GHSERCU#+0.182*GHSERZR#;   
	3000  	N REF9 !




 PHASE CU51ZR14  %  2 0.785   0.215 !
    CONSTITUENT CU51ZR14  :CU,FE:ZR:  !

   PARA	G(CU51ZR14,CU:ZR;0)	298.15
	-10184.262-1.026*T+0.785*GHSERCU#+0.215*GHSERZR#;   
	3000  	N REF9 !
   PARA	G(CU51ZR14,FE:ZR;0)	298.15
	+13234.44+0.785*GHSERFE#+0.215*GHSERZR#;   
	3000  	N  !
   PARA	L(CU51ZR14,CU,FE:ZR;0)	298.15
	-125808.78+108.11*T;   
	3000	N  !







 PHASE CU8ZR3  %  2 0.727   0.273 !
    CONSTITUENT CU8ZR3  :CU,FE:ZR:  !

   PARA	G(CU8ZR3,CU:ZR;0)		298.15
	-11925.337-0.43889*T+0.727*GHSERCU#+0.273*GHSERZR#;   
	3000  	N REF9 !
   PARA	G(CU8ZR3,FE:ZR;0)	298.15
	-12683.14+0.727*GHSERFE#+0.273*GHSERZR#;   
	3000  	N  !
   PARA	L(CU8ZR3,CU,FE:ZR;0)	298.15
	-80275.5+127.5*T;   
	3000	N  !
   PARA	L(CU8ZR3,CU,FE:ZR;1)	298.15
	-130725.635+82.9*T;   
	3000	N  !







 PHASE CU2ZR  %  2 0.666   0.334 !
    CONSTITUENT CU2ZR  :CU:ZR:  !

   PARA	G(CU2ZR,CU:ZR;0)		298.15
	-11425.463-1.4755*T+0.666*GHSERCU#+0.334*GHSERZR#;   
	3000  	N REF9  !




 PHASE CU10ZR7  %  2 0.588   0.412 !
    CONSTITUENT CU10ZR7  :CU:ZR:  !

   PARA	G(CU10ZR7,CU:ZR;0)	298.15
	-20463.114+5.8825*T+0.588*GHSERCU#+0.412*GHSERZR#;   
	3000  	N REF9  !




 PHASE CU5ZR7  %  2 0.416   0.584 !

    CONSTITUENT CU5ZR7  :CU:ZR:  !
   PARA	G(CU5ZR7,CU:ZR;0)		298.15
	-15186.254+1.8103*T+0.416*GHSERCU#+0.584*GHSERZR#;   
	3000  	N REF9  !




 PHASE CUZR2  %  2 0.334   0.666 !
    CONSTITUENT CUZR2  :CU,FE:ZR:  !

   PARA	G(CUZR2,CU:ZR;0)		298.15
	-17045.108+4.2935*T+0.334*GHSERCU#+0.666*GHSERZR#;   
	3000  	N REF9  !
   PARA	G(CUZR2,FE:ZR;0)		298.15
	-8685.15+0.334*GHSERFE#+0.666*GHSERZR#;   
	3000  	N  !
   PARA	L(CUZR2,CU,FE:ZR;0)	298.15
	-173475.46+199.21*T;   
	3000  	N  !
   PARA	L(CUZR2,CU,FE:ZR;1)	298.15
	+72929.34-122.17*T;   
	3000 	N  ! 







 PHASE ZRM  %  2 1   1 !
   CONSTITUENT ZRM  :ZR%,FE:CU%,FE:  !

   PARA	G(ZRM,ZR:CU;0) 		298.15  
	-29672.064+1.7174*T+GHSERZR#+GHSERCU#; 
	6000 	N REF9 !
   PARA G(ZRM,ZR:FE;0)		298.15 
	-63494.527+64.58*T+GHSERZR#+GHSERFE#; 
	6000 	N!
   PARA	G(ZRM,FE:CU;0)		298.15  
	+102740+GHSERFE#+GHSERCU#; 
	6000 	N !
   PARA	G(ZRM,FE:FE;0)		298.15  
	+76558+2*GHSERFE#; 
	6000 	N !
   PARA	L(ZRM,ZR:FE,CU;0)		298.15     
	-281251.63+178.61*T; 
	6000 	N !
   PARA	L(ZRM,ZR:FE,CU;1)		298.15     
	+105449.63-108.82*T; 
	6000 	N !
   PARA	L(ZRM,ZR:FE,CU;2)		298.15     
	-82524.91+118.16*T; 
	6000 	N !
   PARA	L(ZRM,ZR,FE:CU;0)		298.15     
	-61117.15+35.24*T; 
	6000 N !
   PARA	L(ZRM,ZR,FE:CU;1)		298.15     
	+188725.04-93.33*T; 
	6000 	N !
   PARA	L(ZRM,ZR,FE:CU;2)		298.15     
	-126116.45+66.65*T; 
	6000 	N !

    






 PHASE ZR2M  %  2 2   1 !
   CONSTITUENT ZR2M  : ZR%,CU:FE%,ZR,CU:  !


   PARA	G(ZR2M,ZR:FE;0)  		298.15  
	-58236+13.45*T+GHSERFE#+2*GHSERZR#;  
	6000 	N REF5 !
   PARA	G(ZR2M,ZR:ZR;0)  		298.15  
	+84390+3*GHSERZR#;  
	6000 	N REF5 !
   PARA 	G(ZR2M,ZR:CU;0)  		298.15  
	-22410+2*GHSERZR#+GHSERCU#; 
	6000 	N !
   PARA 	G(ZR2M,CU:FE;0)  		298.15  
	+178500+2*GHSERCU#+GHSERFE#; 
	6000 	N !
   PARA 	G(ZR2M,CU:ZR;0)  		298.15  
	+113940+2*GHSERCU#+GHSERZR#; 
	6000 	N !
   PARA 	G(ZR2M,CU:CU;0)  		298.15  
	+55770+3*GHSERCU#; 
	6000 	N !
  PARA	L(ZR2M,ZR:FE,ZR;0)		298.15
	-38250-5*T;   
	6000 	N REF5 !
   PARA 	L(ZR2M,ZR:FE,CU;0)  	298.15  
	-284889.08+248.69*T; 
	6000 	N !
   PARA 	L(ZR2M,ZR:FE,CU;1)  	298.15   
	+195774.48-203.87*T; 
	6000 	N !
   PARA 	L(ZR2M,ZR:FE,CU;2)  	298.15   
	-426273.57+308.53*T; 
	6000 	N !
   PARA 	L(ZR2M,ZR,CU:FE;0)  	298.15  
	-315263.83+247.24*T; 
	6000 	N !
   PARA 	L(ZR2M,ZR,CU:FE;1)  	298.15  
	+118580.65-137.19*T; 
	6000 	N !
   PARA 	L(ZR2M,ZR,CU:FE;2)  	298.15  
	-456112.14+222.77*T; 
	6000	N !









 LIST_OF_REFERENCES
 NUMBER  SOURCE  
   REF1      'Dinsdale A T. SGTE data for pure elements[J]. Calphad-computer 
	Coupling of  Phase Diagrams & Thermochemistry, 1991, 15(4):
	317-425.	(PURE ELEMENTS)'			
   REF2      'Cuiping Guo, Zhenmin Du, Changrong Li, Baoliang Zhang, Mei Tao. 
         	Thermodynamic description of the Al-Fe-Zr system [J]. Computer 
	Coupling of Phase Diagrams and Thermochemistry. CALPHAD, 
	32 (2008), 637-649.	(FE-ZR)'					
   REF3      'Khvan A V, Hallstedt B. Thermodynamic description of the 
	Fe-Mn-Nb-C system[J]. Calphad-computer Coupling of Phase 
	Diagrams & Thermochemistry, 2012, 39(6):62-69.     (FE-NB)' 		
   REF4      'A. Femandez Guillermet, Thermodynamic Analysis of the Stable 
	Phases in the Zr-Nb System and Calculation of the Phase Diagram, 
	Z. Metallkde, 1991, 82, p 478-487.    (NB-ZR)'			
   REF5      'HJ Lu, N Zou, XS Zhao, et al. Thermodynamic investigation of 
	the Zr-Fe-Nb system and its applications[J]. Intermetallics, 2017, 
	88:91-100.    (ZR-FE-NB)'			
   REF6      'S.H. Liu, B. Hallstedt, D. Music, Y. Du, CALPHAD. 38 (2012) 
	43-58.    (FE-NB)'			
   REF7      'M. Ha：ma：la：inen, K. Ja：a：skela：inen, R. Luoma, M. Nuotio, 
	P.Taskinen, and O. Teppo, A Thermodynamic Analysis of the 
	Binary Alloy Systems Cu-Cr, Cu-Nb and Cu-V, CALPHAD, 
	1990, 14, p 125-137    (CU-NB)'			
   REF8      'XJ Liu, Y Liu, YH Guo, et al. Experimental Investigation and 
	Thermodynamic Calculation of the Phase Equilibria in the 
	Cu-Nb-Zr Ternary System[J]. Journal of Phase Equilibria & 
	Diffusion, 2016(5):1-11.    (CU-NB-ZR)'			
   REF9      'W. Gierlotka, K.C. Zhang, and Y.P. Chang, Thermodynamic 
	Description of the Binary Cu-Zr System, J. Alloys Compd., 
	2011, 509, p 8313-8318    (CU-ZR)'			
   REF10    'I. Ansara, A. Jansson, COST507 Thermochemical database 
	for light metal alloys, vol.2. In:I. Ansara, A.T. Dinsdale, 
	M.H. Rand (Eds.), July 1998, EUR18499, 1993.    (FE-CU)'
   REF11    'Q. Chen, Z.P. Jin. The Fe-Cu system: A thermodynamic 
	evaluation[J]. Metallurgical & Materials Transactions A, 1995, 
	26(2):417-426.'

 ! 
 
