
$ Database file written 2014-01-17

 ELEMENT /-   ELECTRON_GAS              0.0000E+00  0.0000E+00  0.0000E+00!
 ELEMENT VA   VACUUM                    0.0000E+00  0.0000E+00  0.0000E+00!
 ELEMENT C    GRAPHITE                  1.2011E+01  1.0540E+03  5.7400E+00!
 ELEMENT CO   HCP_A3                    5.8933E+01  4.7656E+03  3.0040E+00!
 ELEMENT CR   BCC_A2                    5.1996E+01  4.0500E+03  2.3500E+00!
 
 SPECIES C1                          C!
 SPECIES C2                          C2!
 SPECIES C3                          C3!
 SPECIES C4                          C4!
 SPECIES C5                          C5!
 SPECIES C6                          C6!
 SPECIES C7                          C7!
 SPECIES CO1                         CO!
 
$$ --------------------------------------------------------------
$$ The following parameters were evaluated in the present work:
$$ --------------------------------------------------------------
 
 FUNCTION FLIQL0A    2.98150E+02  -258600;       6.00000E+03   N !
 FUNCTION FLIQL1A    2.98150E+02  8060;          6.00000E+03   N !
 FUNCTION FLIQL2A    2.98150E+02  33500;         6.00000E+03   N !
 
 FUNCTION FFCCL0A    2.98150E+02  0.0;           6.00000E+03   N !
 FUNCTION FFCCL0B    2.98150E+02  0.0;           6.00000E+03   N !
 
 FUNCTION GCOM3C2    2.98150E+02  +63920+794.135*T-132.57*T*LN(T)
     -2.35E-05*T**2+1296100*T**(-1);             6.00000E+03   N !
	 
 FUNCTION FM3C2L0A   2.98150E+02  0.0;           6.00000E+03   N !
 FUNCTION FM3C2L0B   2.98150E+02  -4.3;          6.00000E+03   N !
 
 FUNCTION FM7C3L0A   2.98150E+02  339880;        6.00000E+03   N !
 FUNCTION FM7C3L0B   2.98150E+02  -192;          6.00000E+03   N !
 FUNCTION FM7C3L1A   2.98150E+02  230500;        6.00000E+03   N !
 FUNCTION FM7C3L1B   2.98150E+02  -117;          6.00000E+03   N !
 
 FUNCTION FM23L0A    2.98150E+02  1822000;       6.00000E+03   N !
 FUNCTION FM23L0B    2.98150E+02  -1282;         6.00000E+03   N !
 FUNCTION FM23L1     2.98150E+02  391000;        6.00000E+03   N !
 
 FUNCTION AA         2.98150E+02  .869565;       6.00000E+03   N !
 FUNCTION BB         2.98150E+02  .130435;       6.00000E+03   N !
 FUNCTION AB         2.98150E+02  +AA#*BB#;      6.00000E+03   N !
 FUNCTION AB2        2.98150E+02  +AA#*BB#**2;   6.00000E+03   N !
 FUNCTION A2B        2.98150E+02  +AA#**2*BB#;   6.00000E+03   N !
 FUNCTION A2         2.98150E+02  +AA#**2;       6.00000E+03   N !
 FUNCTION A3         2.98150E+02  +AA#**3;       6.00000E+03   N !
 FUNCTION B2         2.98150E+02  +BB#**2;       6.00000E+03   N !
 FUNCTION B3         2.98150E+02  +BB#**3;       6.00000E+03   N !
 
$$ --------------------------------------------------------------
 
 FUNCTION F2216T     2.98150E+02  +710394.885-17.1679458*T-21.05667*T*LN(T)
     +2.5592375E-04*T**2-3.89869667E-08*T**3+3749.6235*T**(-1);  2.95000E+03 
      Y
      +714168.343-42.0175722*T-17.77301*T*LN(T)-8.03841E-04*T**2
     +1.97712167E-08*T**3-427451.65*T**(-1);  6.00000E+03  N !
 FUNCTION F2715T     2.98150E+02  +819695.9+247.625486*T-70.6845*T*LN(T)
     +.05318765*T**2-1.38587333E-05*T**3+143132.35*T**(-1);  6.00000E+02  Y
      +833213.261-14.2043583*T-28.38346*T*LN(T)-.0038425855*T**2
     +2.31949833E-07*T**3-631001.5*T**(-1);  1.60000E+03  Y
      +827248.653+25.7355336*T-33.79864*T*LN(T)-.0015026585*T**2
     +3.03298833E-08*T**3+680088.5*T**(-1);  3.80000E+03  Y
      +824806.46+45.9740871*T-36.47101*T*LN(T)-7.057615E-04*T**2
     -7.60797667E-09*T**3-21149.49*T**(-1);  6.00000E+03  N !
 FUNCTION F2880T     2.98150E+02  +813443.293-71.1682328*T-24.0006*T*LN(T)
     -.014503795*T**2+1.44955383E-06*T**3-260512.6*T**(-1);  1.20000E+03  Y
      +796584.138+79.8815695*T-45.39431*T*LN(T)-.0020923765*T**2
     +6.55938167E-08*T**3+2305195.5*T**(-1);  3.60000E+03  Y
      +783063.645+130.768844*T-51.7042*T*LN(T)-7.593795E-04*T**2
     +1.2239665E-08*T**3+7888700*T**(-1);  6.00000E+03  N !
 FUNCTION F2928T     2.98150E+02  +954375.916+57.3861908*T-39.4542*T*LN(T)
     -.032774525*T**2+4.67478333E-06*T**3+280733.85*T**(-1);  8.00000E+02  Y
      +936579.478+273.735206*T-71.70748*T*LN(T)-.006214745*T**2
     +4.78936167E-07*T**3+2158944*T**(-1);  1.80000E+03  Y
      +920197.754+383.777939*T-86.57784*T*LN(T)-1.0785975E-04*T**2
     +2.97068833E-09*T**3+5623695*T**(-1);  6.00000E+03  N !
 FUNCTION F2944T     2.98150E+02  +957810.608+116.233678*T-49.11472*T*LN(T)
     -.04309541*T**2+6.13988833E-06*T**3+461595.6*T**(-1);  8.00000E+02  Y
      +936578.61+379.251196*T-88.4506*T*LN(T)-.01004114*T**2
     +8.27685833E-07*T**3+2652928*T**(-1);  1.60000E+03  Y
      +913101.816+544.885216*T-111.012*T*LN(T)-1.883959E-04*T**2
     +5.25670167E-09*T**3+7344320*T**(-1);  6.00000E+03  N !
 FUNCTION F4058T     2.98150E+02  +418357.591-56.1619059*T-17.32226*T*LN(T)
     -.01344742*T**2+3.44982667E-06*T**3+21057.655*T**(-1);  6.00000E+02  Y
      +416135.824-2.86956514*T-26.15364*T*LN(T)-1.6165805E-04*T**2
     -6.62772833E-09*T**3+84845.25*T**(-1);  1.60000E+03  Y
      +403240.509+69.0982722*T-35.5394*T*LN(T)+.0026072805*T**2
     -1.325554E-07*T**3+3232830.5*T**(-1);  3.80000E+03  Y
      +467728.976-129.173207*T-11.66997*T*LN(T)-.0013247985*T**2
     -1.08658483E-08*T**3-29464565*T**(-1);  6.00000E+03  N !
 FUNCTION GHSERCC    2.98150E+02  -17368.441+170.73*T-24.3*T*LN(T)
     -4.723E-04*T**2+2562600*T**(-1)-2.643E+08*T**(-2)+1.2E+10*T**(-3);   
     6.00000E+03   N !
 FUNCTION GHSERCO    2.98150E+02  +310.241+133.36601*T-25.0861*T*LN(T)
     -.002654739*T**2-1.7348E-07*T**3+72527*T**(-1);  1.76800E+03  Y
      -17197.666+253.28374*T-40.5*T*LN(T)+9.3488E+30*T**(-9);  6.00000E+03  
     N !
 FUNCTION GCRLIQ     2.98140E+02  +24339.955-11.420225*T+2.37615E-21*T**7
     +GHSERCR#;  2.18000E+03  Y
      -16459.984+335.616316*T-50*T*LN(T);  6.00000E+03  N !
 FUNCTION GHSERCR    2.98140E+02  -8856.94+157.48*T-26.908*T*LN(T)
     +.00189435*T**2-1.47721E-06*T**3+139250*T**(-1);  2.18000E+03  Y
      -34869.344+344.18*T-50*T*LN(T)-2.88526E+32*T**(-9);  6.00000E+03  N !
 FUNCTION GCOBCC     2.98150E+02  +2938-.7138*T+GHSERCO#;   6.00000E+03   N !
 FUNCTION GCOFCC     2.98150E+02  +427.59-.615248*T+GHSERCO#;   6.00000E+03  
      N !
 FUNCTION GCRFCC     2.98150E+02  +7284+.163*T+GHSERCR#;   6.00000E+03   N !
 FUNCTION ZERO       298.15 0.0; 6000.00  N !
 FUNCTION GCOM23C6   2.98150E+02  +23*GHSERCO#+6*GHSERCC#+145000+116*T;   
     6.00000E+03   N !
 FUNCTION GCRM23C6   2.98150E+02  -521983+3622.24*T-620.965*T*LN(T)
     -.126431*T**2;   6.00000E+03   N !
 FUNCTION GCRM3C2    2.98150E+02  -100823.8+530.66989*T-89.6694*T*LN(T)
     -.0301188*T**2;   6.00000E+03   N !
 FUNCTION GCOM7C3    2.98150E+02  -5706.8662+1408.86491*T-249.279353*T*LN(T)
     +956821.275*T**(-1);   6.00000E+03   N !
 FUNCTION GCRM7C3    2.98150E+02  -201690+1103.128*T-190.177*T*LN(T)
     -.0578207*T**2;   6.00000E+03   N !
 FUNCTION UN_ASS 298.15 0; 300 N !
 
 TYPE_DEFINITION % SEQ *!
 DEFINE_SYSTEM_DEFAULT ELEMENT 2 !
 DEFAULT_COMMAND DEF_SYS_ELEMENT VA /- !


 PHASE GAS:G %  1  1.0  !
    CONSTITUENT GAS:G :C,C2,C3,C4,C5,CO :  !

   PARAMETER G(GAS,C;0)  2.98150E+02  +F2216T#+R#*T*LN(1E-05*P);   
  6.00000E+03   N !
   PARAMETER G(GAS,C2;0)  2.98150E+02  +F2715T#+R#*T*LN(1E-05*P);   
  6.00000E+03   N !
   PARAMETER G(GAS,C3;0)  2.98150E+02  +F2880T#+R#*T*LN(1E-05*P);   
  6.00000E+03   N !
   PARAMETER G(GAS,C4;0)  2.98150E+02  +F2928T#+R#*T*LN(1E-05*P);   
  6.00000E+03   N !
   PARAMETER G(GAS,C5;0)  2.98150E+02  +F2944T#+R#*T*LN(1E-05*P);   
  6.00000E+03   N !
   PARAMETER G(GAS,CO;0)  2.98150E+02  +F4058T#+R#*T*LN(1E-05*P);   
  6.00000E+03   N !


 PHASE LIQUID:L %  1  1.0  !
    CONSTITUENT LIQUID:L :C,CO,CR :  !

   PARAMETER G(LIQUID,C;0)  2.98150E+02  +117369-24.63*T+GHSERCC#;   
  6.00000E+03   N !
   PARAMETER G(LIQUID,CO;0)  2.98150E+02  +15085.037-8.931932*T
  -2.19801E-21*T**7+GHSERCO#;  1.76800E+03  Y
   +16351.056-9.683796*T-9.3488E+30*T**(-9)+GHSERCO#;  6.00000E+03  N !
   PARAMETER G(LIQUID,CR;0)  2.98150E+02  +GCRLIQ#;   6.00000E+03   
  N !
   PARAMETER G(LIQUID,C,CO;0)  2.98150E+02  -107940.6+24.956*T;   
  6.00000E+03   N !
   PARAMETER G(LIQUID,C,CO;1)  2.98150E+02  -9805.5;   6.00000E+03   N !
   PARAMETER G(LIQUID,C,CO,CR;0)  2.98150E+02  +FLIQL0A#;   6.00000E+03   N 
  !
   PARAMETER G(LIQUID,C,CO,CR;1)  2.98150E+02  +FLIQL1A#;   6.00000E+03   N 
  !
   PARAMETER G(LIQUID,C,CO,CR;2)  2.98150E+02  +FLIQL2A#;   6.00000E+03   N 
  !
   PARAMETER G(LIQUID,C,CR;0)  2.98150E+02  -90526-25.9116*T;   6.00000E+03  
   N !
   PARAMETER G(LIQUID,C,CR;1)  2.98150E+02  80000;   6.00000E+03   N !
   PARAMETER G(LIQUID,C,CR;2)  2.98150E+02  80000;   6.00000E+03   N !
   PARAMETER G(LIQUID,CO,CR;0)  2.98150E+02  -3034-5.624*T;   6.00000E+03   
  N !
   PARAMETER G(LIQUID,CO,CR;1)  2.98150E+02  909;   6.00000E+03   N !


 TYPE_DEFINITION & GES A_P_D BCC_A2 MAGNETIC  -1.0    4.00000E-01 !
 PHASE BCC_A2  %&  2 1   3 !
    CONSTITUENT BCC_A2  :CO,CR : C,VA :  !

   PARAMETER G(BCC_A2,CO:C;0)  2.98150E+02  +GHSERCO#+3*GHSERCC#+248204
  -31.271*T;   6.00000E+03   N !
   PARAMETER G(BCC_A2,CR:C;0)  2.98150E+02  +GHSERCR#+3*GHSERCC#
   +416000;   6.00000E+03   N !
   PARAMETER TC(BCC_A2,CR:C;0)  2.98150E+02  -311.5;   6.00000E+03   N !
   PARAMETER BMAGN(BCC_A2,CR:C;0)  2.98150E+02  -.008;   6.00000E+03   N 
  !
   PARAMETER G(BCC_A2,CO:VA;0)  2.98150E+02  +GCOBCC#;   6.00000E+03   N 
  !
   PARAMETER TC(BCC_A2,CO:VA;0)  2.98150E+02  1450;   6.00000E+03   N !
   PARAMETER BMAGN(BCC_A2,CO:VA;0)  2.98150E+02  1.35;   6.00000E+03   N 
  !
   PARAMETER G(BCC_A2,CR:VA;0)  2.98150E+02  +GHSERCR#;   
  6.00000E+03   N !
   PARAMETER TC(BCC_A2,CR:VA;0)  2.98150E+02  -311.5;   6.00000E+03   N !
   PARAMETER BMAGN(BCC_A2,CR:VA;0)  2.98150E+02  -.008;   6.00000E+03   N 
  !
   PARAMETER G(BCC_A2,CO,CR:C;0)  2.98150E+02  +17208-13.519*T;   
  6.00000E+03   N !
   PARAMETER G(BCC_A2,CO,CR:C;1)  2.98150E+02  -5470;   6.00000E+03   N !
   PARAMETER G(BCC_A2,CR:C,VA;0)  2.98150E+02  -190*T;   6.00000E+03   N 
  !
   PARAMETER G(BCC_A2,CO,CR:VA;0)  2.98150E+02  +17208-13.519*T;   
  6.00000E+03   N !
   PARAMETER G(BCC_A2,CO,CR:VA;1)  2.98150E+02  -5470;   6.00000E+03   N 
  !


 TYPE_DEFINITION ' GES A_P_D FCC_A1 MAGNETIC  -3.0    2.80000E-01 !
 PHASE FCC_A1  %'  2 1   1 !
    CONSTITUENT FCC_A1  :CO%,CR : C,VA% :  !

   PARAMETER G(FCC_A1,CO:C;0)  2.98150E+02  +GHSERCO#+GHSERCC#+50463.8
  -6.849*T;   6.00000E+03   N !
   PARAMETER G(FCC_A1,CR:C;0)  2.98150E+02  -32690+248.417*T-41.678*T*LN(T)
  -.00301955*T**2;   6.00000E+03   N !
   PARAMETER G(FCC_A1,CO:VA;0)  2.98150E+02  +GCOFCC#;   6.00000E+03   N 
  !
   PARAMETER TC(FCC_A1,CO:VA;0)  2.98150E+02  1395.998;   6.00000E+03   N 
  !
   PARAMETER BMAGN(FCC_A1,CO:VA;0)  2.98150E+02  1.35;   6.00000E+03   N 
  !
   PARAMETER G(FCC_A1,CR:VA;0)  2.98150E+02  +GCRFCC#;   
  6.00000E+03   N !
   PARAMETER TC(FCC_A1,CR:VA;0)  2.98150E+02  -1109;   6.00000E+03   N !
   PARAMETER BMAGN(FCC_A1,CR:VA;0)  2.98150E+02  -2.46;   6.00000E+03   N 
  !
   PARAMETER G(FCC_A1,CO,CR:C;0)  2.98150E+02  +FFCCL0A#+FFCCL0B#*T;   
  6.00000E+03   N !
   PARAMETER G(FCC_A1,CR:C,VA;0)  2.98150E+02  -11977+6.8194*T;   
  6.00000E+03   N !
   PARAMETER G(FCC_A1,CO,CR:VA;0)  2.98150E+02  +1500-9.592*T;   6.00000E+03 
    N !
   PARAMETER TC(FCC_A1,CO,CR:VA;0)  2.98150E+02  -1795;   6.00000E+03   N 
  !


 PHASE GRAPHITE  %  1  1.0  !
    CONSTITUENT GRAPHITE  :C :  !

   PARAMETER G(GRAPHITE,C;0)  2.98150E+02  +GHSERCC#;   6.00000E+03   N !


 TYPE_DEFINITION ( GES A_P_D HCP_A3 MAGNETIC  -3.0    2.80000E-01 !
 PHASE HCP_A3  %(  2 1   .5 !
    CONSTITUENT HCP_A3  :CO,CR : C,VA :  !

   PARAMETER G(HCP_A3,CO:C;0)  2.98150E+02  +GHSERCO#+.5*GHSERCC#+22916.5
  -2.855*T;   6.00000E+03   N !
   PARAMETER G(HCP_A3,CR:C;0)  2.98150E+02  +GHSERCR#+.5*GHSERCC#-18504
  +9.4173*T-2.4997*T*LN(T)+.001386*T**2;   6.00000E+03   N !
   PARAMETER G(HCP_A3,CO:VA;0)  2.98150E+02  +GHSERCO#;   6.00000E+03   N 
  !
   PARAMETER TC(HCP_A3,CO:VA;0)  2.98150E+02  1395.988;   6.00000E+03   N 
  !
   PARAMETER BMAGN(HCP_A3,CO:VA;0)  2.98150E+02  1.35;   6.00000E+03   N 
  !
   PARAMETER G(HCP_A3,CR:VA;0)  2.98150E+02  +4438+GHSERCR#;   
  6.00000E+03   N !
   PARAMETER TC(HCP_A3,CR:VA;0)  2.98150E+02  -1109;   6.00000E+03   N !
   PARAMETER BMAGN(HCP_A3,CR:VA;0)  2.98150E+02  -2.46;   6.00000E+03   N 
  !
   PARAMETER G(HCP_A3,CO,CR:C;0)  2.98150E+02  -6436;   6.00000E+03   N !
   PARAMETER G(HCP_A3,CR:C,VA;0)  2.98150E+02  4165;   6.00000E+03   N !
   PARAMETER G(HCP_A3,CO,CR:VA;0)  2.98150E+02  -6436;   6.00000E+03   N 
  !
   PARAMETER TC(HCP_A3,CO,CR:VA;0)  2.98150E+02  -1795;   6.00000E+03   N 
  !


 PHASE M23C6  %  3 20   3   6 !
    CONSTITUENT M23C6  :CO,CR% : CO,CR% : C :  !

   PARAMETER G(M23C6,CO:CO:C;0)  2.98150E+02  +GCOM23C6#;   6.00000E+03   N 
  !
   PARAMETER G(M23C6,CR:CO:C;0)  2.98150E+02  +AA#*GCRM23C6#+BB#*GCOM23C6#
  +AB#*FM23L0A#+AB#*FM23L0B#*T+AB2#*FM23L1#-A2B#*FM23L1#;   6.00000E+03   N 
  !
   PARAMETER G(M23C6,CO:CR:C;0)  2.98150E+02  +AA#*GCOM23C6#+BB#*GCRM23C6#
  +AB#*FM23L0A#+AB#*FM23L0B#*T+A2B#*FM23L1#-AB2#*FM23L1#;   6.00000E+03   N 
  !
   PARAMETER G(M23C6,CR:CR:C;0)  2.98150E+02  +GCRM23C6#;   6.00000E+03   N 
  !
   PARAMETER G(M23C6,CO,CR:CO:C;0)  2.98150E+02  +A2#*FM23L0A#
  +A2#*FM23L0B#*T+3*A2B#*FM23L1#;   6.00000E+03   N !
   PARAMETER G(M23C6,CO,CR:CO:C;1)  2.98150E+02  +A3#*FM23L1#;   6.00000E+03 
    N !
   PARAMETER G(M23C6,CO:CO,CR:C;0)  2.98150E+02  +B2#*FM23L0A#
  +B2#*FM23L0B#*T+3*AB2#*FM23L1#;   6.00000E+03   N !
   PARAMETER G(M23C6,CO:CO,CR:C;1)  2.98150E+02  +B3#*FM23L1#;   6.00000E+03 
    N !
   PARAMETER G(M23C6,CR:CO,CR:C;0)  2.98150E+02  +B2#*FM23L0A#
  +B2#*FM23L0B#*T-3*AB2#*FM23L1#;   6.00000E+03   N !
   PARAMETER G(M23C6,CR:CO,CR:C;1)  2.98150E+02  +B3#*FM23L1#;   6.00000E+03 
    N !
   PARAMETER G(M23C6,CO,CR:CR:C;0)  2.98150E+02  +A2#*FM23L0A#
  +A2#*FM23L0B#*T-3*A2B#*FM23L1#;   6.00000E+03   N !
   PARAMETER G(M23C6,CO,CR:CR:C;1)  2.98150E+02  +A3#*FM23L1#;   6.00000E+03 
    N !


 PHASE M3C2  %  2 3   2 !
    CONSTITUENT M3C2  :CO,CR : C :  !

   PARAMETER G(M3C2,CO:C;0)  2.98150E+02  +GCOM3C2#;   6.00000E+03   N !
   PARAMETER G(M3C2,CR:C;0)  2.98150E+02  +GCRM3C2#;   6.00000E+03   N !
   PARAMETER G(M3C2,CO,CR:C;0)  2.98150E+02  +FM3C2L0A#+FM3C2L0B#*T;   
  6.00000E+03   N !


 PHASE M7C3  %  2 7   3 !
    CONSTITUENT M7C3  :CO,CR% : C :  !

   PARAMETER G(M7C3,CO:C;0)  2.98150E+02  +GCOM7C3#;   6.00000E+03   N !
   PARAMETER G(M7C3,CR:C;0)  2.98150E+02  +GCRM7C3#;   6.00000E+03   N !
   PARAMETER G(M7C3,CO,CR:C;0)  2.98150E+02  +FM7C3L0A#+FM7C3L0B#*T;   
  6.00000E+03   N !
   PARAMETER G(M7C3,CO,CR:C;1)  2.98150E+02  +FM7C3L1A#+FM7C3L1B#*T;   
  6.00000E+03   N !


 PHASE SIGMA  %  3 8   4   18 !
    CONSTITUENT SIGMA  :CO : CR : CO,CR :  !

   PARAMETER G(SIGMA,CO:CR:CO;0)  2.98150E+02  +8*GCOFCC#+4*GHSERCR#
  +18*GCOBCC#+17077-30.518*T;   6.00000E+03   N !
   PARAMETER G(SIGMA,CO:CR:CR;0)  2.98150E+02  +8*GCOFCC#+22*GHSERCR#-7466
  -104.215*T;   6.00000E+03   N !
 
