
$ Database file written 15- 8-12
$
 ELEMENT /-   ELECTRON_GAS              0.0000E+00  0.0000E+00  0.0000E+00!
 ELEMENT VA   VACUUM                    0.0000E+00  0.0000E+00  0.0000E+00!
 ELEMENT GA   ORTHORHOMBIC_CMCA         6.9723E+01  5.5731E+03  4.0828E+01!
 ELEMENT PT   FCC_A1                    1.9508E+02  5.7237E+03  4.1631E+01!
 ELEMENT SB   RHOMBOHEDRAL_A7           1.2175E+02  5.8702E+03  4.5522E+01!


 FUNCTION GHSERGA    2.98140E+02  -21312.331+585.263691*T-108.228783*T*LN(T)
     +.227155636*T**2-1.18575257E-04*T**3+439954*T**(-1);  3.02890E+02  Y
      -7055.643+132.73019*T-26.0692906*T*LN(T)+1.506E-04*T**2
     -4.0173E-08*T**3-118332*T**(-1)+1.64547E+23*T**(-9);  4.00000E+03  N !
 FUNCTION GHSERPT    2.98140E+02  -7595.631+124.388275*T-24.5526*T*LN(T)
     -.00248297*T**2-2.0138E-08*T**3+7974*T**(-1);  1.30000E+03  Y
      -9253.174+161.529615*T-30.2527*T*LN(T)+.002321665*T**2
     -6.56946E-07*T**3-272106*T**(-1);  2.04150E+03  Y
      -222048.216+1019.35892*T-136.192996*T*LN(T)+.020454938*T**2
     -7.59259E-07*T**3+71539020*T**(-1);  4.00000E+03  N !
 FUNCTION GHSERSB    2.98140E+02  -9242.858+156.154689*T-30.5130752*T*LN(T)
     +.007748768*T**2-3.003415E-06*T**3+100625*T**(-1);  9.03780E+02  Y
      -11738.83+169.485872*T-31.38*T*LN(T)+1.616849E+27*T**(-9);  
     2.00000E+03  N !
 FUNCTION GHSERGAF   2.98140E+02  +GHSERGA#+3800-10.2*T;  4.00000E+03  N !
 FUNCTION UN_ASS 298.15 0; 300 N !

 TYPE_DEFINITION % SEQ *!
 DEFINE_SYSTEM_DEFAULT SPECIE 2 !
 DEFAULT_COMMAND DEF_SYS_ELEMENT VA !


 PHASE LIQUID:L %  1  1.0  !
    CONSTITUENT LIQUID:L :GA,PT,SB :  !

   PARAMETER G(LIQUID,GA;0)  2.00000E+02  +5491.298-18.073995*T+GHSERGA#
  -7.0171E-17*T**7;  3.02890E+02  Y
   +5666.455-18.681147*T+GHSERGA#-1.64547E+23*T**(-9);  4.00000E+03  N REF:0 !
   PARAMETER G(LIQUID,PT;0)  2.98140E+02  +20114.016-9.275183*T+GHSERPT#;  
  6.00000E+02  Y
   +19023.491+32.94182*T-12.3403769*T*LN(T)-.011551507*T**2+9.31516E-07*T**3
  -601426*T**(-1);  2.04150E+03  Y
   +1404.468+205.858962*T-36.5*T*LN(T);  4.00000E+03  N REF:0 !
   PARAMETER G(LIQUID,SB;0)  2.98140E+02  +19822.328-21.923164*T+GHSERSB#
  -1.74847E-20*T**7;  9.03780E+02  Y
   +8175.359+147.455986*T-31.38*T*LN(T);  2.00000E+03  N REF:0 !
   PARAMETER G(LIQUID,GA,PT;0)  2.98150E+02  -250202.3+33.387*T;   
  6.00000E+03   N REF:0 !
   PARAMETER G(LIQUID,GA,PT;1)  2.98150E+02  +20000-T;   6.00000E+03   N 
  REF:0 !
   PARAMETER G(LIQUID,GA,PT;2)  2.98150E+02  +60000-6.5*T;   6.00000E+03   N 
  REF:0 !
   PARAMETER G(LIQUID,GA,PT;3)  2.98150E+02  -30000+20*T;   6.00000E+03   N 
  REF:0 !
   PARAMETER G(LIQUID,GA,PT,SB;0)  2.98150E+02  +164669.0;   6.00000E+03   
  N REF:0 !
   PARAMETER G(LIQUID,GA,PT,SB;1)  2.98150E+02  +37971.4;   6.00000E+03   
  N REF:0 !
   PARAMETER G(LIQUID,GA,PT,SB;2)  2.98150E+02  +77267.6;   6.00000E+03   
  N REF:0 !
   PARAMETER G(LIQUID,GA,SB;0)  2.98150E+02  -13953.8+71.0787*T
  -9.6232*T*LN(T);   6.00000E+03   N REF:0 !
   PARAMETER G(LIQUID,GA,SB;1)  2.98150E+02  +1722.9-1.92588*T;   
  6.00000E+03   N REF:0 !
   PARAMETER G(LIQUID,GA,SB;2)  2.98150E+02  2128.3;   6.00000E+03   N REF:0 !
   PARAMETER G(LIQUID,PT,SB;0)  2.98150E+02  -169878.6+44.8959*T;   
  6.00000E+03   N REF:0 !
   PARAMETER G(LIQUID,PT,SB;1)  2.98150E+02  -50982.5+9.1148*T;   
  6.00000E+03   N REF:0 !


 PHASE BCC_A2  %  2 1   3 !
    CONSTITUENT BCC_A2  :GA,PT,SB : VA :  !

   PARAMETER G(BCC_A2,GA:VA;0)  2.00000E+02  +4500-11.7*T+GHSERGA#;  
  4.00000E+03  N REF:0 !
   PARAMETER G(BCC_A2,PT:VA;0)  2.98140E+02  +15000-2.4*T+GHSERPT#;  
  4.00000E+03  N REF:0 !
   PARAMETER G(BCC_A2,SB:VA;0)  2.98140E+02  +19874-15.1*T+GHSERSB#;  
  2.00000E+03  N REF:0 !


 PHASE BCT_A5  %  1  1.0  !
    CONSTITUENT BCT_A5  :GA,SB :  !

   PARAMETER G(BCT_A5,GA;0)  2.00000E+02  +3846-9.8*T+GHSERGA#;  4.00000E+03 
   N REF:0 !
   PARAMETER G(BCT_A5,SB;0)  2.98140E+02  +1000+GHSERSB#;  2.00000E+03  N 
  REF:0 !


 PHASE FCC_A1  %  2 1   1 !
    CONSTITUENT FCC_A1  :GA,PT,SB : VA :  !

   PARAMETER G(FCC_A1,GA:VA;0)  2.00000E+02  +3800-10.2*T+GHSERGA#;  
  4.00000E+03  N REF:0 !
   PARAMETER G(FCC_A1,PT:VA;0)  2.98140E+02  +GHSERPT#;  4.00000E+03  N 
  REF:0 !
   PARAMETER G(FCC_A1,SB:VA;0)  2.98140E+02  +19874-13.7*T+GHSERSB#;  
  2.00000E+03  N REF:0 !
   PARAMETER G(FCC_A1,GA,PT:VA;0)  2.98150E+02  -189097+8.8*T;   6.00000E+03 
    N REF:0 !
   PARAMETER G(FCC_A1,GA,PT:VA;1)  2.98150E+02  -2000+.084*T;   6.00000E+03  
   N REF:0 !
   PARAMETER G(FCC_A1,GA,PT,SB:VA;0)  2.98150E+02  0;   6.00000E+03 
    N REF:0 !
   PARAMETER G(FCC_A1,GA,PT,SB:VA;1)  2.98150E+02  0;   
  6.00000E+03   N REF:0 !
   PARAMETER G(FCC_A1,GA,PT,SB:VA;2)  2.98150E+02  0;   
  6.00000E+03   N REF:0 !
   PARAMETER G(FCC_A1,PT,SB:VA;0)  2.98150E+02  -13004.2+60.7336*T;   
  6.00000E+03   N REF:0 !
   PARAMETER G(FCC_A1,PT,SB:VA;1)  2.98150E+02  -222530.2;   6.00000E+03   N 
  REF:0 !


 PHASE GA2PT  %  2 .667   .333 !
    CONSTITUENT GA2PT  :GA,SB : PT :  !

   PARAMETER G(GA2PT,GA:PT;0)  2.98150E+02  +.667*GHSERGA#+.333*GHSERPT#
  -60453.6+1.549*T;   6.00000E+03   N REF:0 !
   PARAMETER G(GA2PT,SB:PT;0)  2.98150E+02  +.667*GHSERSB#+.333*GHSERPT#
  +5000;   6.00000E+03   N REF:0 !
   PARAMETER G(GA2PT,GA,SB:PT;0)  2.98150E+02  +291167.1+85.2402*T;
   6.00000E+03   N REF:0 !
   PARAMETER G(GA2PT,GA,SB:PT;1)  2.98150E+02  -460528.1;   6.00000E+03   
  N REF:0 !


 PHASE GA3PT2  %  2 .6   .4 !
    CONSTITUENT GA3PT2  :GA,SB : PT :  !

   PARAMETER G(GA3PT2,GA:PT;0)  2.98150E+02  +.6*GHSERGA#+.4*GHSERPT#
  -65089.2+2.168*T;   6.00000E+03   N REF:0 !
   PARAMETER G(GA3PT2,SB:PT;0)  2.98150E+02  +.6*GHSERSB#+.4*GHSERPT#+5000;  
   6.00000E+03   N REF:0 !
   PARAMETER G(GA3PT2,GA,SB:PT;0)  2.98150E+02  -71875.3+85.8935*T;
   6.00000E+03   N REF:0 !
   PARAMETER G(GA3PT2,GA,SB:PT;1)  2.98150E+02  -33273.6;   6.00000E+03  
   N REF:0 !


 PHASE GA3PT5  %  2 .375   .625 !
    CONSTITUENT GA3PT5  :GA,SB : PT :  !

   PARAMETER G(GA3PT5,GA:PT;0)  2.98150E+02  +.375*GHSERGA#+.625*GHSERPT#
  -61687.2+1.788*T;   6.00000E+03   N REF:0 !
   PARAMETER G(GA3PT5,SB:PT;0)  2.98150E+02  +.375*GHSERSB#+.625*GHSERPT#
  +5000;   6.00000E+03   N REF:0 !
   PARAMETER G(GA3PT5,GA,SB:PT;0)  2.98150E+02  -25000;   6.00000E+03  
   N REF:0 !
   PARAMETER G(GA3PT5,GA,SB:PT;1)  2.98150E+02  0;   6.00000E+03  
   N REF:0 !


 PHASE GA6PT  %  2 .857   .143 !
    CONSTITUENT GA6PT  :GA,SB : PT :  !

   PARAMETER G(GA6PT,GA:PT;0)  2.98150E+02  +.857*GHSERGA#+.143*GHSERPT#
  -30979.5+2.146*T;   6.00000E+03   N REF:0 !
   PARAMETER G(GA6PT,SB:PT;0)  2.98150E+02  +.857*GHSERSB#+.143*GHSERPT#
  +5000;   6.00000E+03   N REF:0 !
   PARAMETER G(GA6PT,GA,SB:PT;0)  2.98150E+02  0;   6.00000E+03   
  N REF:0 !
   PARAMETER G(GA6PT,GA,SB:PT;1)  2.98150E+02  0;   6.00000E+03   
  N REF:0 !


 PHASE GA7PT3  %  2 .7   .3 !
    CONSTITUENT GA7PT3  :GA,SB : PT :  !

   PARAMETER G(GA7PT3,GA:PT;0)  2.98150E+02  +.7*GHSERGA#+.3*GHSERPT#
  -59226.2+3.732*T;   6.00000E+03   N REF:0 !
   PARAMETER G(GA7PT3,SB:PT;0)  2.98150E+02  +.7*GHSERSB#+.3*GHSERPT#+5000;  
   6.00000E+03   N REF:0 !
   PARAMETER G(GA7PT3,GA,SB:PT;0)  2.98150E+02  +10000.0-1.1677*T;
   6.00000E+03     N REF:0 !
   PARAMETER G(GA7PT3,GA,SB:PT;1)  2.98150E+02  -50766.9;   6.00000E+03  
   N REF:0 !


 PHASE GAPT  %  2 .5   .5 !
    CONSTITUENT GAPT  :GA,SB : PT :  !

   PARAMETER G(GAPT,GA:PT;0)  2.98150E+02  +.5*GHSERGA#+.5*GHSERPT#-68118.9
  +1.994*T;   6.00000E+03   N REF:0 !
   PARAMETER G(GAPT,SB:PT;0)  2.98150E+02  +.5*GHSERSB#+.5*GHSERPT#+5000;   
  6.00000E+03   N REF:0 !
   PARAMETER G(GAPT,GA,SB:PT;0)  2.98150E+02  0;   6.00000E+03   
  N REF:0 !
   PARAMETER G(GAPT,GA,SB:PT;1)  2.98150E+02  0;   6.00000E+03   
  N REF:0 !


 PHASE GAPT2  %  2 .333   .667 !
    CONSTITUENT GAPT2  :GA,SB : PT :  !

   PARAMETER G(GAPT2,GA:PT;0)  2.98150E+02  +.333*GHSERGA#+.667*GHSERPT#
  -58100.2+1.864*T;   6.00000E+03   N REF:0 !
   PARAMETER G(GAPT2,SB:PT;0)  2.98150E+02  +.333*GHSERSB#+.667*GHSERPT#
  +5000;   6.00000E+03   N REF:0 !
   PARAMETER G(GAPT2,GA,SB:PT;0)  2.98150E+02  -28336.3-4.3060*T;
   6.00000E+03    N REF:0 !
   PARAMETER G(GAPT2,GA,SB:PT;1)  2.98150E+02  0;   6.00000E+03   
  N REF:0 !


 PHASE GAPT3  %  2 .25   .75 !
    CONSTITUENT GAPT3  :GA,PT,SB : GA,PT :  !

   PARAMETER G(GAPT3,GA:GA;0)  2.98150E+02  +GHSERGAF#+32007;   6.00000E+03  
   N REF:0 !
   PARAMETER G(GAPT3,PT:GA;0)  2.98150E+02  +.75*GHSERGAF#+.25*GHSERPT#
  +20001.5+6.001*T;   6.00000E+03   N REF:0 !
   PARAMETER G(GAPT3,SB:GA;0)  2.98150E+02  +.25*GHSERSB#+.75*GHSERGAF#+5000;
     6.00000E+03   N REF:0 !
   PARAMETER G(GAPT3,GA:PT;0)  2.98150E+02  +.25*GHSERGAF#+.75*GHSERPT#
  -46891.2+1.98*T;   6.00000E+03   N REF:0 !
   PARAMETER G(GAPT3,PT:PT;0)  2.98150E+02  +GHSERPT#+5000;   6.00000E+03   
  N REF:0 !
   PARAMETER G(GAPT3,SB:PT;0)  2.98150E+02  +.25*GHSERSB#+.75*GHSERPT#+5000; 
    6.00000E+03   N REF:0 !
   PARAMETER G(GAPT3,GA,PT:GA;0)  2.98150E+02  +1499.7+1.999*T;   
  6.00000E+03   N REF:0 !
   PARAMETER G(GAPT3,GA:GA,PT;0)  2.98150E+02  -208000+57*T;   6.00000E+03   
  N REF:0 !
   PARAMETER G(GAPT3,PT:GA,PT;0)  2.98150E+02  -208000+57*T;   6.00000E+03   
  N REF:0 !
   PARAMETER G(GAPT3,GA,PT:PT;0)  2.98150E+02  +1499.7+1.999*T;   
  6.00000E+03   N REF:0 !
   PARAMETER G(GAPT3,GA,SB:PT;0)  2.98150E+02  -56000+8.000*T;   6.00000E+03   
  N REF:0 !


 PHASE GASB  %  2 .5   .5 !
    CONSTITUENT GASB  :GA : SB :  !

   PARAMETER G(GASB,GA:SB;0)  2.98150E+02  +.5*GHSERGA#+.5*GHSERSB#-21738.1
  -10.53764*T+2.692876*T*LN(T)-.00137791*T**2;   6.00000E+03   N REF:0 !


 PHASE HCP_A3  %  2 1   .5 !
    CONSTITUENT HCP_A3  :GA,PT,SB : VA :  !

   PARAMETER G(HCP_A3,GA:VA;0)  2.00000E+02  +4500-9.5*T+GHSERGA#;  
  4.00000E+03  N REF:0 !
   PARAMETER G(HCP_A3,PT:VA;0)  2.98140E+02  +2500+.1*T+GHSERPT#;  
  4.00000E+03  N REF:0 !
   PARAMETER G(HCP_A3,SB:VA;0)  2.98140E+02  +19874-13*T+GHSERSB#;  
  2.00000E+03  N REF:0 !


 PHASE ORTHORHOMBIC  %  1  1.0  !
    CONSTITUENT ORTHORHOMBIC  :GA :  !

   PARAMETER G(ORTHORHOMBIC,GA;0)  2.00000E+02  +GHSERGA#;  4.00000E+03  N 
  REF:0 !


 PHASE PT3SB  %  2 3   1 !
    CONSTITUENT PT3SB  :PT : GA,SB :  !

   PARAMETER G(PT3SB,PT:GA;0)  2.98150E+02  +3*GHSERPT#+GHSERGA#+20000;   
  6.00000E+03   N REF:0 !
   PARAMETER G(PT3SB,PT:SB;0)  2.98150E+02  +3*GHSERPT#+GHSERSB#-104971.6
  +8.404*T;   6.00000E+03   N REF:0 !
   PARAMETER G(PT3SB,PT:GA,SB;0)  2.98150E+02  +100000.0+100.000*T;
   6.00000E+03  N REF:0 !
   PARAMETER G(PT3SB,PT:GA,SB;1)  2.98150E+02  +430000;   6.00000E+03   
  N REF:0 !


 PHASE PT3SB2  %  2 3   2 !
    CONSTITUENT PT3SB2  :PT : GA,SB :  !

   PARAMETER G(PT3SB2,PT:GA;0)  2.98150E+02  +3*GHSERPT#+2*GHSERGA#+25000;   
  6.00000E+03   N REF:0 !
   PARAMETER G(PT3SB2,PT:SB;0)  2.98150E+02  +3*GHSERPT#+2*GHSERSB#-174658.4
  +10.8848*T;   6.00000E+03   N REF:0 !
   PARAMETER G(PT3SB2,PT:GA,SB;0)  2.98150E+02  +100000.0+100.000*T;
   6.00000E+03    N REF:0 !
   PARAMETER G(PT3SB2,PT:GA,SB;1)  2.98150E+02  +740000;   6.00000E+03  
   N REF:0 !


 PHASE PT5SB  %  2 5   1 !
    CONSTITUENT PT5SB  :PT,SB : GA,PT,SB :  !

   PARAMETER G(PT5SB,PT:GA;0)  2.98150E+02  +5*GHSERPT#+GHSERGA#+30000;   
  6.00000E+03   N REF:0 !
   PARAMETER G(PT5SB,SB:GA;0)  2.98150E+02  +5*GHSERSB#+GHSERGA#+30000;   
  6.00000E+03   N REF:0 !
   PARAMETER G(PT5SB,PT:PT;0)  2.98150E+02  +6*GHSERPT#+30000;   6.00000E+03 
    N REF:0 !
   PARAMETER G(PT5SB,SB:PT;0)  2.98150E+02  +GHSERPT#+5*GHSERSB#+126606.3
  -28.7544*T+60000;   6.00000E+03   N REF:0 !
   PARAMETER G(PT5SB,PT:SB;0)  2.98150E+02  +5*GHSERPT#+GHSERSB#-126606.3
  +28.7544*T;   6.00000E+03   N REF:0 !
   PARAMETER G(PT5SB,SB:SB;0)  2.98150E+02  +6*GHSERSB#+30000;   6.00000E+03 
    N REF:0 !
   PARAMETER G(PT5SB,PT,SB:PT;0)  2.98150E+02  -558341.2;   6.00000E+03   N 
  REF:0 !
   PARAMETER G(PT5SB,PT,SB:PT;1)  2.98150E+02  190567.2;   6.00000E+03   N 
  REF:0 !
   PARAMETER G(PT5SB,PT:PT,SB;0)  2.98150E+02  -111626.8;   6.00000E+03   N 
  REF:0 !
   PARAMETER G(PT5SB,SB:PT,SB;0)  2.98150E+02  -111626.8;   6.00000E+03   N 
  REF:0 !
   PARAMETER G(PT5SB,PT,SB:SB;0)  2.98150E+02  -558341.2;   6.00000E+03   N 
  REF:0 !
   PARAMETER G(PT5SB,PT,SB:SB;1)  2.98150E+02  190567.2;   6.00000E+03   N 
  REF:0 !


 PHASE PT7SB  %  2 7   1 !
    CONSTITUENT PT7SB  :PT : GA,SB :  !

   PARAMETER G(PT7SB,PT:GA;0)  2.98150E+02  +7*GHSERPT#+GHSERGA#+40000;   
  6.00000E+03   N REF:0 !
   PARAMETER G(PT7SB,PT:SB;0)  2.98150E+02  +7*GHSERPT#+GHSERSB#-150253
  +26.812*T;   6.00000E+03   N REF:0 !
   PARAMETER G(PT7SB,PT:GA,SB;0)  2.98150E+02  0;   6.00000E+03   
  N REF:0 !
   PARAMETER G(PT7SB,PT:GA,SB;1)  2.98150E+02  0;   6.00000E+03   
  N REF:0 !


 PHASE PTSB  %  2 1   1 !
    CONSTITUENT PTSB  :PT : GA,SB :  !

   PARAMETER G(PTSB,PT:GA;0)  2.98150E+02  +GHSERPT#+GHSERGA#+10000;   
  6.00000E+03   N REF:0 !
   PARAMETER G(PTSB,PT:SB;0)  2.98150E+02  +GHSERPT#+GHSERSB#-81220.5
  +6.823*T;   6.00000E+03   N REF:0 !
   PARAMETER G(PTSB,PT:GA,SB;0)  2.98150E+02  +193261.7+116.2003*T;
   6.00000E+03   N REF:0 !
   PARAMETER G(PTSB,PT:GA,SB;1)  2.98150E+02  +560375.9;   6.00000E+03   
  N REF:0 !


 PHASE PTSB2  %  2 1   2 !
    CONSTITUENT PTSB2  :PT : GA,SB :  !

   PARAMETER G(PTSB2,PT:GA;0)  2.98150E+02  +GHSERPT#+2*GHSERGA#+15000;   
  6.00000E+03   N REF:0 !
   PARAMETER G(PTSB2,PT:SB;0)  2.98150E+02  +GHSERPT#+2*GHSERSB#-149612
  -21.456*T+7.078251*T*LN(T);   6.00000E+03   N REF:0 !
   PARAMETER G(PTSB2,PT:GA,SB;0)  2.98150E+02  -29520.4+193.0185*T;
   6.00000E+03   N REF:0 !
   PARAMETER G(PTSB2,PT:GA,SB;1)  2.98150E+02  +668940.9-101.777*T;
   6.00000E+03   N REF:0 !


 PHASE RHOMBO_A7  %  1  1.0  !
    CONSTITUENT RHOMBO_A7  :GA,PT,SB :  !

   PARAMETER G(RHOMBO_A7,GA;0)  2.98150E+02  +GHSERGA#+5000;   6.00000E+03   
  N REF:0 !
   PARAMETER G(RHOMBO_A7,PT;0)  2.98150E+02  +GHSERPT#+5000;   6.00000E+03   
  N REF:0 !
   PARAMETER G(RHOMBO_A7,SB;0)  2.98140E+02  +GHSERSB#;  2.00000E+03  N 
  REF:0 !


 PHASE TETRAGONAL_A6  %  1  1.0  !
    CONSTITUENT TETRAGONAL_A6  :GA :  !

   PARAMETER G(TETRAGONAL_A6,GA;0)  2.00000E+02  +3500-10*T+GHSERGA#;  
  4.00000E+03  N REF:0 !

 LIST_OF_REFERENCES
 NUMBER  SOURCE
  ! 

