$ Database file written 
$ From database: C.H.Tang                   
 ELEMENT /-   ELECTRON_GAS              0.0000E+00  0.0000E+00  0.0000E+00!
 ELEMENT VA   VACUUM                    0.0000E+00  0.0000E+00  0.0000E+00!
 ELEMENT LI   BCC_A2                    6.9410E+00  4.6233E+03  2.9095E+01!
 ELEMENT NI   FCC_A1                    5.8690E+01  4.7870E+03  2.9796E+01!
 ELEMENT SI   DIAMOND_A4                2.8085E+01  3.2175E+03  1.8820E+01!
 
 
 FUNCTION UN_ASS     2.98150E+02  0.0 ;  3.00000E+02  N !

FUNCTION GHSERLI  2.00000E+02  -10583.817+217.637482*T
  -38.940488*T*LN(T)+.035466931*T**2-1.9869816E-05*T**3+159994*T**(-1);  
  4.53600E+02  Y
   -559579.123+10547.8799*T-1702.88865*T*LN(T)+2.25832944*T**2
  -5.71066077E-04*T**3+33885874*T**(-1);  5.00000E+02  Y
   -9062.994+179.278285*T-31.2283718*T*LN(T)+.002633221*T**2
  -4.38058E-07*T**3-102387*T**(-1);  3.00000E+03  N REF0 !

 FUNCTION GHSERSI  2.98150E+02  -8162.609+137.236859*T
  -22.8317533*T*LN(T)-.001912904*T**2-3.552E-09*T**3+176667*T**(-1);  
  1.68700E+03  Y
   -9457.642+167.281367*T-27.196*T*LN(T)-4.20369E+30*T**(-9);  3.60000E+03  
  N REF0 !
 

FUNCTION GHSERNI  2.98150E+02  -5179.159+117.854*T
  -22.096*T*LN(T)-.0048407*T**2;  1.72800E+03  Y
   -27840.655+279.135*T-43.1*T*LN(T)+1.12754E+31*T**(-9);  3.00000E+03  N 
  REF0 !


 TYPE_DEFINITION % SEQ *!
 DEFINE_SYSTEM_DEFAULT ELEMENT 2 !
 DEFAULT_COMMAND DEF_SYS_ELEMENT VA /- !


 $============================================================================
SPECIES LI2                         LI2!

 FUNCTION F11525T    2.98140E+02  +152984.64+2.33568548*T-21.07772*T*LN(T)
     +2.515552E-04*T**2-3.41354333E-08*T**3+7690.735*T**(-1);  2.40000E+03  Y
      +183390.413-110.69493*T-7.20516*T*LN(T)-.002217371*T**2
     +2.443155E-08*T**3-11648370*T**(-1);  4.80000E+03  Y
      +109652.446+17.244513*T-21.24264*T*LN(T)-.0015038825*T**2
     +3.76717667E-08*T**3+50092500*T**(-1);  8.80000E+03  Y
      -72231.6407+344.035356*T-57.87689*T*LN(T)+.0017448465*T**2
     -1.58650733E-08*T**3+2.178053E+08*T**(-1);  1.00000E+04  N !
 FUNCTION F11601T    2.98140E+02  +203319.119+52.2617048*T-37.02637*T*LN(T)
     -8.421915E-04*T**2-1.078653E-07*T**3+65874.15*T**(-1);  1.10000E+03  Y
      +200885.055+48.6776399*T-35.9057*T*LN(T)-.0039990175*T**2
     +5.08151333E-07*T**3+883657*T**(-1);  1.90000E+03  Y
      +137315.894+473.019388*T-93.02457*T*LN(T)+.018440525*T**2
     -1.12358533E-06*T**3+13866255*T**(-1);  3.10000E+03  Y
      +638944.289-1507.74849*T+153.9314*T*LN(T)-.035715045*T**2
     +1.10781833E-06*T**3-1.776338E+08*T**(-1);  5.10000E+03  Y
      -624845.178+1789.13827*T-234.2722*T*LN(T)+.0173718*T**2
     -2.55232167E-07*T**3+5.95322E+08*T**(-1);  6.00000E+03  N !
 FUNCTION F11521T    2.00000E+02  -10583.818+217.637497*T-38.94049*T*LN(T)
     +.03546693*T**2-1.98698167E-05*T**3+159994.05*T**(-1);  4.53600E+02  Y
      -9057.23643+179.265767*T-31.22837*T*LN(T)+.0026332215*T**2
     -4.38057833E-07*T**3-102386.85*T**(-1);  3.00000E+03  N !
$=========================================================================


PHASE GAS:G %  1  1.0  !
    CONSTITUENT GAS:G :LI,LI2 :  !

   PARAMETER G(GAS,LI;0)  2.98150E+02  +F11525T#+R#*T*LN(1E-05*P);   
  6.00000E+03   N REF:5297 !
   PARAMETER G(GAS,LI2;0)  2.98150E+02  +F11601T#+R#*T*LN(1E-05*P);   
  6.00000E+03   N REF:5320 !



$=========================================================================


PHASE LIQUID  %  1  1.0  !
    CONSTITUENT LIQUID  :LI,NI,SI :  !

   PARAMETER G(LIQUID,LI;0)  2.00000E+02  -7883.612+211.841861*T
  -38.940488*T*LN(T)+.035466931*T**2-1.9869816E-05*T**3+159994*T**(-1);  
  2.50000E+02  Y
   +12015.027-362.187078*T+61.6104424*T*LN(T)-.182426463*T**2
  +6.3955671E-05*T**3-559968*T**(-1);  4.53600E+02  Y
   -6057.31+172.652183*T-31.2283718*T*LN(T)+.002633221*T**2-4.38058E-07*T**3
  -102387*T**(-1);  3.00000E+03  N REF0 !
   PARAMETER G(LIQUID,NI;0)  2.98150E+02  +11235.527+108.457*T
  -22.096*T*LN(T)-.0048407*T**2-3.82318E-21*T**7;  1.72800E+03  Y
   -9549.775+268.598*T-43.1*T*LN(T);  3.00000E+03  N REF0 !
   PARAMETER G(LIQUID,SI;0)  2.98150E+02  +42533.751+107.13742*T
  -22.8317533*T*LN(T)-.001912904*T**2-3.552E-09*T**3+176667*T**(-1)
  +2.09307E-21*T**7;  1.68700E+03  Y
   +40370.523+137.722298*T-27.196*T*LN(T);  3.60000E+03  N REF0 !
$=========================================================================

 TYPE_DEFINITION & GES A_P_D BCC_A2 MAGNETIC  -1.0    4.00000E-01 !
 PHASE BCC_A2  %&  2 1   3 !
    CONSTITUENT BCC_A2  :LI,NI,SI : VA :  !

   PARAMETER G(BCC_A2,LI:VA;0)  2.00000E+02  -10583.817+217.637482*T
  -38.940488*T*LN(T)+.035466931*T**2-1.9869816E-05*T**3+159994*T**(-1);  
  4.53600E+02  Y
   -559579.123+10547.8799*T-1702.88865*T*LN(T)+2.25832944*T**2
  -5.71066077E-04*T**3+33885874*T**(-1);  5.00000E+02  Y
   -9062.994+179.278285*T-31.2283718*T*LN(T)+.002633221*T**2
  -4.38058E-07*T**3-102387*T**(-1);  3.00000E+03  N REF0 !
   PARAMETER G(BCC_A2,NI:VA;0)  2.98150E+02  +3535.925+114.298*T
  -22.096*T*LN(T)-.0048407*T**2;  1.72800E+03  Y
   -19125.571+275.579*T-43.1*T*LN(T)+1.12754E+31*T**(-9);  3.00000E+03  N 
  REF0 !
   PARAMETER TC(BCC_A2,NI:VA;0)  2.98150E+02  575;  3.00000E+03  N REF0 !
   PARAMETER BMAGN(BCC_A2,NI:VA;0)  2.98150E+02  .85;  3.00000E+03  N REF0 !
   PARAMETER G(BCC_A2,SI:VA;0)  2.98150E+02  +38837.391+114.736859*T
  -22.8317533*T*LN(T)-.001912904*T**2-3.552E-09*T**3+176667*T**(-1);  
  1.68700E+03  Y
   +37542.358+144.781367*T-27.196*T*LN(T)-4.20369E+30*T**(-9);  3.60000E+03  
  N REF0 !

$=========================================================================
 TYPE_DEFINITION ' GES A_P_D CBCC_A12 MAGNETIC  -3.0    2.80000E-01 !
 PHASE CBCC_A12  %'  2 1   1 !
    CONSTITUENT CBCC_A12  :NI,SI : VA :  !

   PARAMETER G(CBCC_A12,NI:VA;0)  2.98150E+02  -1623.159+117.854*T
  -22.096*T*LN(T)-.0048407*T**2;  1.72800E+03  Y
   -24284.655+279.135*T-43.1*T*LN(T)+1.12754E+31*T**(-9);  3.00000E+03  N 
  REF0 !
   PARAMETER G(CBCC_A12,SI:VA;0)  2.98150E+02  +42045.391+116.859859*T
  -22.8317533*T*LN(T)-.001912904*T**2-3.552E-09*T**3+176667*T**(-1);  
  1.68700E+03  Y
   +40750.358+146.904367*T-27.196*T*LN(T)-4.20369E+30*T**(-9);  3.60000E+03  
  N REF0 !

$=========================================================================
 PHASE CUB_A13  %  2 1   1 !
    CONSTITUENT CUB_A13  :NI,SI : VA :  !

   PARAMETER G(CUB_A13,NI:VA;0)  2.98150E+02  -3087.159+117.854*T
  -22.096*T*LN(T)-.0048407*T**2;  1.72800E+03  Y
   -25748.655+279.135*T-43.1*T*LN(T)+1.12754E+31*T**(-9);  3.00000E+03  N 
  REF0 !
   PARAMETER G(CUB_A13,SI:VA;0)  2.98150E+02  +39116.391+116.859859*T
  -22.8317533*T*LN(T)-.001912904*T**2-3.552E-09*T**3+176667*T**(-1);  
  1.68700E+03  Y
   +37821.358+146.904367*T-27.196*T*LN(T)-4.20369E+30*T**(-9);  3.60000E+03
  N REF0 !

$=========================================================================
 PHASE DIAMOND_A4  %  1  1.0  !
    CONSTITUENT DIAMOND_A4  :SI :  !

   PARAMETER G(DIAMOND_A4,SI;0)  2.98150E+02  -8162.609+137.236859*T
  -22.8317533*T*LN(T)-.001912904*T**2-3.552E-09*T**3+176667*T**(-1);  
  1.68700E+03  Y
   -9457.642+167.281367*T-27.196*T*LN(T)-4.20369E+30*T**(-9);  3.60000E+03  
  N REF0 !

$=========================================================================
 TYPE_DEFINITION ( GES A_P_D FCC_A1 MAGNETIC  -3.0    2.80000E-01 !
 PHASE FCC_A1  %(  2 1   1 !
    CONSTITUENT FCC_A1  :LI,NI,SI : VA :  !

   PARAMETER G(FCC_A1,LI:VA;0)  2.00000E+02  -10691.817+218.937482*T
  -38.940488*T*LN(T)+.035466931*T**2-1.9869816E-05*T**3+159994*T**(-1);  
  4.53600E+02  Y
   -559687.123+10549.1799*T-1702.88865*T*LN(T)+2.25832944*T**2
  -5.71066077E-04*T**3+33885874*T**(-1);  5.00000E+02  Y
   -9170.994+180.578285*T-31.2283718*T*LN(T)+.002633221*T**2
  -4.38058E-07*T**3-102387*T**(-1);  3.00000E+03  N REF0 !
   PARAMETER G(FCC_A1,NI:VA;0)  2.98150E+02  -5179.159+117.854*T
  -22.096*T*LN(T)-.0048407*T**2;  1.72800E+03  Y
   -27840.655+279.135*T-43.1*T*LN(T)+1.12754E+31*T**(-9);  3.00000E+03  N 
  REF0 !
   PARAMETER TC(FCC_A1,NI:VA;0)  2.98150E+02  633;  3.00000E+03  N REF0 !
   PARAMETER BMAGN(FCC_A1,NI:VA;0)  2.98150E+02  .52;  3.00000E+03  N REF0 !
   PARAMETER G(FCC_A1,SI:VA;0)  2.98150E+02  +42837.391+115.436859*T
  -22.8317533*T*LN(T)-.001912904*T**2-3.552E-09*T**3+176667*T**(-1);  
  1.68700E+03  Y
   +41542.358+145.481367*T-27.196*T*LN(T)-4.20369E+30*T**(-9);  3.60000E+03
  N REF0 !

$=========================================================================
 TYPE_DEFINITION ) GES A_P_D HCP_A3 MAGNETIC  -3.0    2.80000E-01 !
 PHASE HCP_A3  %)  2 1   .5 !
    CONSTITUENT HCP_A3  :LI,NI,SI : VA :  !

   PARAMETER G(HCP_A3,LI:VA;0)  2.00000E+02  -10737.817+219.637482*T
  -38.940488*T*LN(T)+.035466931*T**2-1.9869816E-05*T**3+159994*T**(-1);  
  4.53600E+02  Y
   -559733.123+10549.8799*T-1702.88865*T*LN(T)+2.25832944*T**2
  -5.71066077E-04*T**3+33885874*T**(-1);  5.00000E+02  Y
   -9216.994+181.278285*T-31.2283718*T*LN(T)+.002633221*T**2
  -4.38058E-07*T**3-102387*T**(-1);  3.00000E+03  N REF0 !
   PARAMETER G(HCP_A3,NI:VA;0)  2.98150E+02  -4133.159+119.109*T
  -22.096*T*LN(T)-.0048407*T**2;  1.72800E+03  Y
   -26794.655+280.39*T-43.1*T*LN(T)+1.12754E+31*T**(-9);  3.00000E+03  N 
  REF0 !
   PARAMETER G(HCP_A3,SI:VA;0)  2.98150E+02  +41037.391+116.436859*T
  -22.8317533*T*LN(T)-.001912904*T**2-3.552E-09*T**3+176667*T**(-1);  
  1.68700E+03  Y
   +39742.358+146.481367*T-27.196*T*LN(T)-4.20369E+30*T**(-9);  3.60000E+03  
  N REF0 !

$=========================================================================
 PHASE HCP_ZN  %  2 1   .5 !
    CONSTITUENT HCP_ZN  :SI : VA :  !

   PARAMETER G(HCP_ZN,SI:VA;0)  2.98150E+02  +41038.391+116.436859*T
  -22.8317533*T*LN(T)-.001912904*T**2-3.552E-09*T**3+176667*T**(-1);  
  1.68700E+03  Y
   +39743.358+146.481367*T-27.196*T*LN(T)-4.20369E+30*T**(-9);  3.60000E+03  
  N REF0 !

$---------------------------------------------------------------------------
$ LI-NI              By C.H. Tang
$---------------------------------------------------------------------------
  PARAMETER G(LIQUID,LI,NI;0)  2.98150E+02  18220.15+13.95*T; 
  6.00000E+03 N REF:0 !

  PARAMETER G(LIQUID,LI,NI;1)  2.98150E+02  14900; 
  6.00000E+03 N REF:0 !

  PARAMETER G(BCC_A2,LI,NI:VA;0)  2.98150E+02  20000;
  6.00000E+03  N  REF:0 !
 
  PARAMETER G(HCP_A3,LI,NI:VA;0)  2.98150E+02  85000;
  6.00000E+03  N  REF:0 !

   PARAMETER G(FCC_A1,LI,NI:VA;0)  2.98150E+02  35350;
   6.00000E+03  N  REF:0 !


$=========================================================================
$   REF.Thermodynamic Assessment of the Li-Si System 
$        Wang et. al. 2013
$
$
$=========================================================================


 PARAMETER G(LIQUID,LI,SI;0) 298.15  -96229.2+7.7643*T; 6000 N!
PARAMETER G(LIQUID,LI,SI;1) 298.15  -36662.8+21.9999*T; 6000 N!
PARAMETER G(LIQUID,LI,SI;2) 298.15  14202.8; 6000 N!


 PHASE LI22SI5  %  2 22   5 !
    CONSTITUENT LI22SI5  :LI : SI :  !

       PARAMETER G(LI22SI5,LI:SI;0) 298.15  -730215+1403.2413*T-220.0727664*T*LN(T)
   -1.113647454*T**2+6.21622E-04*T**3+956935.674*T**(-1)-2.15241E-07*T**4; 900 Y
  -1086346.111+7022.06951857358*T-1084.125187*T*LN(T); 1800 N!

PHASE LI13SI4  %  2 13   4 !
    CONSTITUENT LI13SI4  :LI : SI :  !

       PARAMETER G(LI13SI4,LI:SI;0) 298.15  -530510.5+1182.9824*T
     -195.203826*T*LN(T)-0.444458634*T**2+0.000176596*T**3+245969.2345*T**(-1)
     -4.79768E-08*T**4; 1000 Y
     -699391.7323+3830.9397*T-599.7736*T*LN(T); 1800 N!

PHASE LI7SI3  %  2 7   3 !
    CONSTITUENT LI7SI3  :LI : SI :  !

       PARAMETER G(LI7SI3,LI:SI;0) 223  -290956+178.172*T
   -25.499093*T*LN(T)-0.485357655*T**2+2.23419E-04*T**3-421905.535*T**(-1)
   -5.64805E-8*T**4; 1100 Y
  -434530.7235+2410.6881*T-374.0714*T*LN(T); 1800 N!


PHASE LI12SI7  %  2 12   7 !
    CONSTITUENT LI12SI7  :LI : SI :  !

       PARAMETER G(LI12SI7,LI:SI;0) 298.15  -551495.9+1352.8608*T
   -229.555359*T*LN(T)-0.433418633*T**2+0.000121119*T**3+325569.446*T**(-1)
   -2.38286E-08*T**4; 1100 Y
   -743901.2423+4347.2881*T-683.8089*T*LN(T); 1800 N! 



$---------------------------------------------------------------------------
$ Ni-Si              J. Miettinen, CALPHAD, 29(2005) 212-221
$---------------------------------------------------------------------------

 PARAMETER G(LIQUID,NI,SI;0) 2.98150E+02 -205000+33*T;
  6.00000E+03  N   !
 PARAMETER G(LIQUID,NI,SI;1) 2.98150E+02 -102700+27*T;
  6.00000E+03  N   !
 PARAMETER G(LIQUID,NI,SI;2) 2.98150E+02 +25000;
  6.00000E+03  N   !
 PARAMETER G(LIQUID,NI,SI;3) 2.98150E+02 +117000-55*T;
  6.00000E+03  N   ! 

 PARAMETER G(FCC_A1,NI,SI:VA;0) 2.98150E+02 -205000+30*T;
  6.00000E+03  N   !
 PARAMETER G(FCC_A1,NI,SI:VA;1) 2.98150E+02 -52000+20*T;
  6.00000E+03  N   !

 PHASE NI19SI6 % 2 .76 .24 !
   CONSTITUENT NI19SI6 :NI:SI: !   
   
 PARAMETER G(NI19SI6,NI:SI;0) 2.98150E+02 -41632+4.8*T
  +.76*GHSERNI#+.24*GHSERSI#; 6.00000E+03 N   ! 
 

 PHASE NI3SI % 2 .75 .25 !
   CONSTITUENT NI3SI :NI:SI: !   
   
 PARAMETER G(NI3SI,NI:SI;0) 2.98150E+02 -40465+3*T
  +.75*GHSERNI#+.25*GHSERSI#; 6.00000E+03 N   ! 
 
 PHASE BELTA % 2 .75 .25 !
   CONSTITUENT BELTA :NI:SI: !   
   
 PARAMETER G(BELTA,NI:SI;0) 2.98150E+02 -33110-2.3*T
  +.75*GHSERNI#+.25*GHSERSI#; 6.00000E+03 N   ! 


 PHASE NI5SI2 % 2 .7143 .2857 !
   CONSTITUENT NI5SI2 :NI:SI: !   
   
 PARAMETER G(NI5SI2,NI:SI;0) 2.98150E+02 -43170+2*T
  +.7143*GHSERNI#+.2857*GHSERSI#; 6.00000E+03 N   ! 
 
 
 PHASE THETA % 3 1 1 1 !
   CONSTITUENT THETA :NI:NI,VA:SI: !   
   
 PARAMETER G(THETA,NI:NI:SI;0) 2.98150E+02 -110000-13*T
  +2*GHSERNI#+GHSERSI#; 6.00000E+03 N   !
 PARAMETER G(THETA,NI:VA:SI;0) 2.98150E+02 -75600+1.3*T
  +GHSERNI#+GHSERSI#; 6.00000E+03 N   !
 PARAMETER G(THETA,NI:NI,VA:SI;0) 2.98150E+02 +10000;
  6.00000E+03 N   !

 PHASE NI2SI % 2 .6667 .3333 !
   CONSTITUENT NI2SI :NI: SI: !   
   
 PARAMETER G(NI2SI,NI:SI;0) 2.98150E+02 -48800+62.165*T-8*T*LN(T)
  +.6667*GHSERNI#+.3333*GHSERSI#; 6.00000E+03 N   !
   
 PHASE NI3SI2 % 2 .6 .4 !
   CONSTITUENT NI3SI2 :NI:SI:!   
   
 PARAMETER G(NI3SI2,NI:SI;0) 2.98150E+02 -43300+1.7*T
  +.6*GHSERNI#+.4*GHSERSI#; 6.00000E+03 N   !
 
 PHASE NISI % 2 .5 .5 !
   CONSTITUENT NISI :NI:SI:!   
   
 PARAMETER G(NISI,NI:SI;0) 2.98150E+02 -40300+.6*T
  +.5*GHSERNI#+.5*GHSERSI#; 6.00000E+03 N   !

 PHASE NISI2 % 2 .3333 .6667 !
   CONSTITUENT NISI2 :NI:SI: !   
   
 PARAMETER G(NISI2,NI:SI;0) 2.98150E+02 -35600+6*T+.3333*GHSERNI#
  +.6667*GHSERSI#; 6.00000E+03 N   !




$---------------------------------------------------------------------------
$ LI-SI-NI              By C.H. Tang
$----------------------------------------------------------------------------

 PHASE LINI2SI % 3   0.25    0.5   0.25 !
   CONSTITUENT LINI2SI :LI:NI:SI: !   
   
 PARAMETER G(LINI2SI,LI:NI:SI;0) 2.98150E+02  -50652.5+2.5*T
+0.25*GHSERLI#+0.5*GHSERNI#+0.25*GHSERSI#;
 6.00000E+03 N   !


PHASE LI13NI40SI31 % 3   0.15476  0.47619  0.36905 !
   CONSTITUENT LI13NI40SI31 :LI:NI:SI: !   
   
 PARAMETER G(LI13NI40SI31,LI:NI:SI;0) 2.98150E+02 -51428.6
+0.15476*GHSERLI#+0.47619*GHSERNI#+0.36905*GHSERSI#;
 6.00000E+03 N   !



PHASE LINI6SI6 % 3   0.07692  0.46154   0.46154 !
   CONSTITUENT LINI6SI6 :LI:NI:SI: !   
   
 PARAMETER G(LINI6SI6,LI:NI:SI;0) 2.98150E+02  -47967.4-1.4*T
+0.07692*GHSERLI#+0.46154*GHSERNI#+0.46154*GHSERSI#;
 6.00000E+03 N   !


PHASE LI13NI9SI18 % 3 0.325   0.225   0.45 !
   CONSTITUENT LI13NI9SI18 :LI:NI:SI: !   
   
 PARAMETER G(LI13NI9SI18,LI:NI:SI;0) 2.98150E+02 -34900
+0.325*GHSERLI#+0.225*GHSERNI#+0.45*GHSERSI#;
 6.00000E+03 N   !


$ LI1.2NI10.8SI12 => LI12NI108SI12
 PHASE LI12NI108SI12 % 3 0.05  0.45   0.5 !
   CONSTITUENT LI12NI108SI12 :LI:NI:SI: !   
   
 PARAMETER G(LI12NI108SI12,LI:NI:SI;0) 2.98150E+02 -47020.8
+0.05*GHSERLI#+0.45*GHSERNI#+0.5*GHSERSI#;
 6.00000E+03 N   !




 PHASE LI75NI20SI128 % 3   0.33632  0.08969  0.57399 !
   CONSTITUENT LI75NI20SI128 :LI:NI:SI: !   
   
 PARAMETER G(LI75NI20SI128,LI:NI:SI;0) 2.98150E+02  -21524.4
+0.33632*GHSERLI#+0.08969*GHSERNI#+0.57399*GHSERSI#;
 6.00000E+03 N   !





























 
