
$ Database file written 2016- 7- 9
$ From database: USER                    
 ELEMENT /-   ELECTRON_GAS              0.0000E+00  0.0000E+00  0.0000E+00!
 ELEMENT VA   VACUUM                    0.0000E+00  0.0000E+00  0.0000E+00!
 ELEMENT CA   FCC_A1                    4.0080E+01  6.1965E+03  4.1589E+01!
 ELEMENT FE   BCC_A2                    5.5847E+01  4.4890E+03  2.7280E+01!
 ELEMENT O    1/2_MOLE_O2(GAS)          1.5999E+01  4.3410E+03  1.0252E+02!
 ELEMENT S    ORTHORHOMBIC_S            3.2066E+01  0.0000E+00  0.0000E+00!
 
 SPECIES CA+2                        CA1/+2!
 SPECIES CA1FE2O4                    CA1FE2O4!
 SPECIES CA1O1                       CA1O1!
 SPECIES CA1O2                       CA1O2!
 SPECIES CA1O3S1                     CA1O3S1!
 SPECIES CA1O4S1                     CA1O4S1!
 SPECIES CA1S1                       CA1S1!
 SPECIES CA2                         CA2!
 SPECIES CA2FE2O5                    CA2FE2O5!
 SPECIES CAO                         CA1O1!
 SPECIES E-                          VA1/-1!
 SPECIES FE+2                        FE1/+2!
 SPECIES FE+3                        FE1/+3!
 SPECIES FE+4                        FE1/+4!
 SPECIES FE.947O11                   FE0.947O11!
 SPECIES FE0.875S1                   FE0.875S1!
 SPECIES FE0.947O1                   FE0.947O1!
 SPECIES FE1O1                       FE1O1!
 SPECIES FE1O2                       FE1O2!
 SPECIES FE1O4S1                     FE1O4S1!
 SPECIES FE1S1                       FE1S1!
 SPECIES FE1S2                       FE1S2!
 SPECIES FE2                         FE2!
 SPECIES FE2O12S3                    FE2O12S3!
 SPECIES FE2O3                       FE2O3!
 SPECIES FE3O4                       FE3O4!
 SPECIES FEO                         FE1O1!
 SPECIES FEO3/2                      FE1O1.5!
 SPECIES O-2                         O1/-2!
 SPECIES O1S1                        O1S1!
 SPECIES O1S2                        O1S2!
 SPECIES O2                          O2!
 SPECIES O2-2                        O2/-2!
 SPECIES O2S1                        O2S1!
 SPECIES O3                          O3!
 SPECIES O3S1                        O3S1!
 SPECIES S-2                         S1/-2!
 SPECIES S2                          S2!
 SPECIES S3                          S3!
 SPECIES S4                          S4!
 SPECIES S5                          S5!
 SPECIES S6                          S6!
 SPECIES S7                          S7!
 SPECIES S8                          S8!
 SPECIES SO4-2                       O4S1/-2!
 SPECIES VA-2                        VA1/-2!
 
 FUNCTION F5783T     2.98150E+02  +170631.61-14.470473*T-20.97219*T*LN(T)
     +1.78157E-04*T**2-2.74831667E-08*T**3+4459.1005*T**(-1);  1.90000E+03  Y
      +133042.047+211.942959*T-51.03146*T*LN(T)+.01095733*T**2
     -7.58329333E-07*T**3+8900275*T**(-1);  3.60000E+03  Y
      +802106.637-2023.14842*T+221.2015*T*LN(T)-.03849748*T**2
     +9.34346333E-07*T**3-3.007237E+08*T**(-1);  5.90000E+03  Y
      -1016507.92+1951.8583*T-236.1074*T*LN(T)+.012768595*T**2
     -1.46631567E-07*T**3+1.0593555E+09*T**(-1);  1.00000E+04  N !
 FUNCTION F5953T     2.98150E+02  +27187.5732+2.82368367*T-32.6874*T*LN(T)
     -.0042977525*T**2+6.61898833E-07*T**3+108932.4*T**(-1);  8.00000E+02  Y
      +10939.0899+191.591047*T-60.56871*T*LN(T)+.017104125*T**2
     -2.44585667E-06*T**3+1892250.5*T**(-1);  1.70000E+03  Y
      +264546.787-1406.1704*T+152.9149*T*LN(T)-.062972*T**2
     +3.20298333E-06*T**3-54717800*T**(-1);  2.90000E+03  Y
      -479126.92+1673.82219*T-233.6918*T*LN(T)+.02647423*T**2
     -6.82389E-07*T**3+2.1387495E+08*T**(-1);  5.10000E+03  Y
      +101718.099+125.519566*T-50.8391*T*LN(T)+8.196885E-04*T**2
     -6.203065E-09*T**3-1.333774E+08*T**(-1);  1.00000E+04  N !
 FUNCTION F5992T     2.98150E+02  +109563.459+19.7992148*T-37.52976*T*LN(T)
     +4.9060145E-04*T**2-2.42470167E-07*T**3+113863.75*T**(-1);  9.00000E+02 
      Y
      +109201.051+44.5287359*T-41.6638*T*LN(T)+.005962705*T**2
     -1.3086005E-06*T**3-102245.3*T**(-1);  1.60000E+03  Y
      +198829.792-589.252089*T+44.54002*T*LN(T)-.0308902*T**2
     +1.64567767E-06*T**3-17577940*T**(-1);  2.80000E+03  Y
      -92029.8827+701.362724*T-119.0516*T*LN(T)+.00995844*T**2
     -2.647865E-07*T**3+79273300*T**(-1);  5.40000E+03  Y
      +274677.897-249.284081*T-7.205198*T*LN(T)-.005229315*T**2
     +1.221265E-07*T**3-1.468852E+08*T**(-1);  6.00000E+03  N !
 FUNCTION F6014T     2.98150E+02  +328351.639+100.727905*T-57.06096*T*LN(T)
     +.043881965*T**2-1.00131433E-05*T**3-34035.885*T**(-1);  5.00000E+02  Y
      +341516.759-125.927777*T-21.13135*T*LN(T)+2.0114005E-04*T**2
     -1.72831E-08*T**3-939425*T**(-1);  2.40000E+03  Y
      +341937.685-129.505068*T-20.63507*T*LN(T)-3.0526885E-05*T**2
     +1.18918867E-09*T**3-1003665*T**(-1);  3.00000E+03  N !
 FUNCTION F10703T    2.98150E+02  +401732.827+37.9381886*T-32.861*T*LN(T)
     +.00908265*T**2-1.34845667E-06*T**3+108791.4*T**(-1);  9.00000E+02  Y
      +410335.744-51.7107058*T-19.84276*T*LN(T)+6.959445E-05*T**2
     -1.30682983E-07*T**3-976411.5*T**(-1);  2.40000E+03  Y
      +406591.004-47.1975307*T-20.12513*T*LN(T)-5.66549E-04*T**2
     -5.290265E-08*T**3+887592*T**(-1);  5.50000E+03  Y
      +518056.742-373.01803*T+18.70844*T*LN(T)-.00634452*T**2
     +1.038655E-07*T**3-55487750*T**(-1);  1.00000E+04  N !
 FUNCTION F10756T    2.98150E+02  +242959.406+66.5286035*T-45.09778*T*LN(T)
     +.0030485115*T**2-1.625766E-07*T**3+200217.55*T**(-1);  8.00000E+02  Y
      +247786.672+21.6650732*T-38.81041*T*LN(T)+2.307457E-04*T**2
     -1.1922035E-07*T**3-422319.65*T**(-1);  4.40000E+03  Y
      +549867.541-834.720516*T+63.20684*T*LN(T)-.01521316*T**2
     +3.22927167E-07*T**3-1.6953895E+08*T**(-1);  6.00000E+03  N !
 FUNCTION F10761T    2.98150E+02  +55475.2387-2.02034624*T-37.569*T*LN(T)
     -.01894785*T**2+3.36232667E-06*T**3+205940*T**(-1);  7.00000E+02  Y
      +45666.2154+131.130135*T-57.802*T*LN(T)-7.83E-05*T**2
     +2.57666667E-09*T**3+1111465*T**(-1);  6.00000E+03  N !
 FUNCTION F10794T    2.98150E+02  +356138.471+12.0236594*T-38.18795*T*LN(T)
     -.00721668*T**2+2.149135E-06*T**3+38490.615*T**(-1);  6.00000E+02  Y
      +351642.471+85.3673358*T-49.70295*T*LN(T)+.005976585*T**2
     -7.01981167E-07*T**3+369958.45*T**(-1);  1.30000E+03  Y
      +361555.729+4.59327675*T-38.45281*T*LN(T)+2.2276285E-04*T**2
     -1.42424367E-07*T**3-1289714.5*T**(-1);  2.40000E+03  Y
      +368844.66-34.4650264*T-33.35631*T*LN(T)-.001380954*T**2
     -4.71374333E-08*T**3-3282010*T**(-1);  4.30000E+03  Y
      +545309.649-540.361577*T+26.98409*T*LN(T)-.01059409*T**2
     +2.17918333E-07*T**3-1.0047185E+08*T**(-1);  5.80000E+03  Y
      +406266.09-229.975125*T-8.796162*T*LN(T)-.006536355*T**2
     +1.3239095E-07*T**3;  6.00000E+03  N !
 FUNCTION F10717T    2.98150E+02  +504399.708+155.240738*T-48.04721*T*LN(T)
     +.0045131445*T**2-1.38132583E-06*T**3+123625.75*T**(-1);  1.10000E+03  Y
      +486141.022+236.598666*T-57.36458*T*LN(T)+7.8394E-05*T**2
     +3.40843667E-07*T**3+4098996*T**(-1);  2.50000E+03  Y
      +500328.869+261.990839*T-62.41141*T*LN(T)+.00532538*T**2
     -1.30827917E-07*T**3-6839750*T**(-1);  6.00000E+03  N !
 FUNCTION F14527T    2.98150E+02  -3561.23425-48.0819156*T-25.11393*T*LN(T)
     -.010079175*T**2+1.56476567E-06*T**3+5439.39*T**(-1);  8.00000E+02  Y
      -7112.74734+7.70326848*T-33.73371*T*LN(T)-.001472197*T**2
     +3.03207333E-08*T**3+242592.75*T**(-1);  2.90000E+03  Y
      -29478.9518+85.9225956*T-43.27841*T*LN(T)+2.1038515E-04*T**2
     -1.814365E-08*T**3+9628580*T**(-1);  6.00000E+03  N !
 FUNCTION F14532T    2.98150E+02  -70285.9261+1.34023828*T-38.37728*T*LN(T)
     -.01772857*T**2+3.08948E-06*T**3+141256.25*T**(-1);  8.00000E+02  Y
      -79745.5408+126.983393*T-57.41787*T*LN(T)-2.2150725E-04*T**2
     +1.125761E-08*T**3+1053081.5*T**(-1);  3.40000E+03  Y
      -80760.3244+132.541894*T-58.14045*T*LN(T)-9.364045E-06*T**2
     +2.61617833E-10*T**3+1301305.5*T**(-1);  6.00000E+03  N !
 FUNCTION F14375T    2.98150E+02  -6965.21532-50.5304315*T-22.3649*T*LN(T)
     -.00990912*T**2+1.20026583E-06*T**3-77535.75*T**(-1);  6.00000E+02  Y
      -8807.78237-26.3126811*T-25.99933*T*LN(T)-.00694323*T**2
     +8.04195333E-07*T**3+90022.35*T**(-1);  1.00000E+03  Y
      -15052.1241+39.5601504*T-35.57101*T*LN(T)-3.708985E-04*T**2
     -4.80521167E-08*T**3+860271.5*T**(-1);  2.30000E+03  Y
      -8823.65673+3.71926228*T-30.85139*T*LN(T)-.0019495235*T**2
     +5.02773E-08*T**3-670976*T**(-1);  4.10000E+03  Y
      -7013.9736+6.93103034*T-31.38542*T*LN(T)-.001656954*T**2
     +3.47421833E-08*T**3-3177110*T**(-1);  6.00000E+03  Y
      +26556.5297-81.8606432*T-20.93747*T*LN(T)-.0030562285*T**2
     +6.90690167E-08*T**3-22459590*T**(-1);  8.40000E+03  Y
      -414379.34+627.760535*T-99.46439*T*LN(T)+.003184458*T**2
     -2.42980333E-08*T**3+4.4363345E+08*T**(-1);  1.20000E+04  Y
      -286534.147+496.228104*T-85.70049*T*LN(T)+.002546952*T**2
     -1.90235667E-08*T**3+2.2612925E+08*T**(-1);  1.60000E+04  Y
      +169868.379+75.3492467*T-42.13511*T*LN(T)+6.93379E-04*T**2
     -4.19646667E-09*T**3-6.73131E+08*T**(-1);  2.00000E+04  N !
 FUNCTION F14849T    2.98150E+02  -306850.417-57.4648268*T-26.25443*T*LN(T)
     -.026896635*T**2+4.38674333E-06*T**3+3287.6615*T**(-1);  8.00000E+02  Y
      -322029.697+136.633618*T-55.46687*T*LN(T)-.0012200165*T**2
     +5.60413333E-08*T**3+1526377.5*T**(-1);  2.60000E+03  Y
      -325559.066+157.095567*T-58.16429*T*LN(T)-3.140385E-04*T**2
     +2.84143833E-11*T**3+2399356.5*T**(-1);  6.00000E+03  N !
 FUNCTION F14415T    2.98150E+02  +134848.008-131.223611*T-12.03048*T*LN(T)
     -.05275305*T**2+1.2029595E-05*T**3-102360.9*T**(-1);  5.00000E+02  Y
      +125218.595+47.4797409*T-40.81794*T*LN(T)-.0137036*T**2
     +1.90056833E-06*T**3+514086.5*T**(-1);  8.00000E+02  Y
      +116301.963+157.624133*T-57.26249*T*LN(T)-1.3629415E-04*T**2
     -2.12367333E-07*T**3+1426255*T**(-1);  1.20000E+03  Y
      +76721.1518+503.834314*T-106.002*T*LN(T)+.0266356*T**2
     -2.98006167E-06*T**3+7474120*T**(-1);  1.60000E+03  Y
      +48905.4457+717.33371*T-135.3917*T*LN(T)+.040276715*T**2
     -4.15597833E-06*T**3+12338385*T**(-1);  2.10000E+03  Y
      +520719.833-1837.33582*T+198.1425*T*LN(T)-.06465645*T**2
     +2.04255167E-06*T**3-1.129672E+08*T**(-1);  2.50000E+03  Y
      +1271313.19-5388.12786*T+652.5156*T*LN(T)-.18701485*T**2
     +8.22613333E-06*T**3-3.456718E+08*T**(-1);  3.10000E+03  Y
      -58819.7904-242.069298*T+12.85911*T*LN(T)-.05022045*T**2
     +2.73771E-06*T**3+1.7323845E+08*T**(-1);  3.50000E+03  Y
      -1865873.5+6082.45586*T-762.2686*T*LN(T)+.0976441*T**2
     -2.554365E-06*T**3+9.636295E+08*T**(-1);  4.10000E+03  Y
      -1603985.97+5364.29063*T-677.2357*T*LN(T)+.08557655*T**2
     -2.24026833E-06*T**3+8.14364E+08*T**(-1);  4.80000E+03  Y
      -54953.3125+1260.31667*T-193.0202*T*LN(T)+.018228555*T**2
     -4.819375E-07*T**3-1.158314E+08*T**(-1);  5.80000E+03  Y
      -189639.743+1510.18103*T-221.0511*T*LN(T)+.02063245*T**2
     -5.15334667E-07*T**3;  6.00000E+03  N !
 FUNCTION F15120T    2.98150E+02  -407848.584-56.5330502*T-25.51583*T*LN(T)
     -.05275105*T**2+9.862385E-06*T**3+46212.49*T**(-1);  6.00000E+02  Y
      -424606.129+200.97123*T-65.52604*T*LN(T)-.00967297*T**2
     +1.02581917E-06*T**3+1378852*T**(-1);  1.30000E+03  Y
      -438497.867+322.438792*T-82.65325*T*LN(T)-8.210765E-05*T**2
     +2.440715E-09*T**3+3548680.5*T**(-1);  6.00000E+03  N !
 FUNCTION F16008T    2.98150E+02  +269797.373+2.28102912*T-25.70471*T*LN(T)
     +.003751372*T**2-5.48887167E-07*T**3+3450.3165*T**(-1);  1.00000E+03  Y
      +273925.002-38.4958657*T-19.81748*T*LN(T)-2.300353E-04*T**2
     -1.18709967E-08*T**3-570436.5*T**(-1);  3.40000E+03  Y
      +257401.532-.943967214*T-24.05931*T*LN(T)-5.98546E-07*T**2
     +2.02961167E-09*T**3+9368165*T**(-1);  1.00000E+04  N !
 FUNCTION F16023T    2.98150E+02  +117374.548+2.98629558*T-34.09678*T*LN(T)
     -.002325464*T**2+1.85480167E-07*T**3+128593.6*T**(-1);  1.00000E+03  Y
      +117352.438+2.50383258*T-34.04744*T*LN(T)-.0021150245*T**2
     +9.16602333E-08*T**3+175718.45*T**(-1);  3.40000E+03  Y
      +124361.091+14.5182895*T-36.1923*T*LN(T)-5.930925E-04*T**2
     -7.54259333E-09*T**3-7484105*T**(-1);  6.00000E+03  N !
 FUNCTION F16033T    2.98150E+02  +126744.316+83.8435679*T-52.94561*T*LN(T)
     -.0043385055*T**2+6.68300333E-07*T**3+276938.3*T**(-1);  1.00000E+03  Y
      +123958.871+118.720435*T-58.16242*T*LN(T)-7.29079E-06*T**2
     +2.42566833E-10*T**3+558805*T**(-1);  6.00000E+03  N !
 FUNCTION F16042T    2.98150E+02  +109847.439+203.904962*T-72.67966*T*LN(T)
     -.009041155*T**2+1.47148883E-06*T**3+505278*T**(-1);  9.00000E+02  Y
      +104526.08+272.793561*T-83.05028*T*LN(T)-1.828101E-05*T**2
     +6.19803333E-10*T**3+1023588.5*T**(-1);  6.00000E+03  N !
 FUNCTION F16046T    2.98150E+02  +106276.073+170.263397*T-74.99022*T*LN(T)
     -.035336475*T**2+5.76872833E-06*T**3+227070.6*T**(-1);  9.00000E+02  Y
      +75139.8853+544.891052*T-130.537*T*LN(T)+.007879015*T**2
     -4.32610333E-07*T**3+3425257*T**(-1);  2.80000E+03  Y
      +114904.754+339.945758*T-103.9801*T*LN(T)+2.25877E-05*T**2
     -7.925025E-10*T**3-7832715*T**(-1);  6.00000E+03  N !
 FUNCTION F16051T    2.98150E+02  +57214.7955+523.240738*T-130.1838*T*LN(T)
     -4.152356E-04*T**2-4.27131667E-07*T**3+779118.5*T**(-1);  1.60000E+03  Y
      +8925.72404+728.509035*T-155.3363*T*LN(T)+.002031178*T**2
     -1.776135E-08*T**3+14908280*T**(-1);  4.20000E+03  Y
      +43158.7845+657.511851*T-147.3935*T*LN(T)+.0015928905*T**2
     -3.34608333E-08*T**3-8046775*T**(-1);  6.00000E+03  N !
 FUNCTION F16056T    2.98150E+02  +59623.0035+634.182526*T-153.2939*T*LN(T)
     -.003102847*T**2+3.66153167E-07*T**3+940068*T**(-1);  1.50000E+03  Y
      +56671.3253+666.288103*T-157.9591*T*LN(T)-2.441417E-06*T**2
     +7.28532E-11*T**3+1284129.5*T**(-1);  6.00000E+03  N !
 FUNCTION F16060T    2.98150E+02  +45619.0286+695.99667*T-166.1987*T*LN(T)
     -.0109886*T**2-1.38875683E-06*T**3+753634*T**(-1);  8.00000E+02  Y
      +22301.5849+822.418117*T-181.0091*T*LN(T)-.020252625*T**2
     +3.04543E-06*T**3+4785936*T**(-1);  1.50000E+03  Y
      +28125.3362+992.470204*T-208.7199*T*LN(T)+.006139635*T**2
     -2.57977667E-07*T**3-2943090*T**(-1);  3.90000E+03  Y
      +82396.4106+766.112127*T-180.3439*T*LN(T)-2.580219E-04*T**2
     +5.17172833E-09*T**3-21845450*T**(-1);  6.00000E+03  N !
 FUNCTION GCALIQ     2.98150E+02  +5844.846+62.4838*T-16.3138*T*LN(T)
     -.01110455*T**2-133574*T**(-1);  5.00000E+02  Y
      +7838.856+18.2979*T-8.9874787*T*LN(T)-.02266537*T**2+3.338303E-06*T**3
     -230193*T**(-1);  1.11500E+03  Y
      -2654.938+188.9223*T-35*T*LN(T);  3.00000E+03  N !
 FUNCTION GFELIQ     2.98150E+02  +12040.17-6.55843*T-3.6751551E-21*T**7
     +GHSERFE#+GPFELIQ#;  1.81100E+03  Y
      -10839.7+291.302*T-46*T*LN(T)+GPFELIQ#;  6.00000E+03  N !
 FUNCTION GSSLIQ     2.98150E+02  -4001.549+77.889686*T-15.504*T*LN(T)
     -.018629*T**2-2.4942E-07*T**3-113945*T**(-1);  3.88360E+02  Y
      -5285183.35+118449.585*T-19762.4*T*LN(T)+32.79275*T**2
     -.0102214167*T**3+2.646735E+08*T**(-1);  4.28150E+02  Y
      -8174995.23+319914.078*T-57607.3*T*LN(T)+135.3045*T**2
     -.0529973333*T**3;  4.32250E+02  Y
      -219408.801+7758.83993*T-1371.85*T*LN(T)+2.845035*T**2
     -.00101380333*T**3;  4.53150E+02  Y
      +92539.872-1336.36627*T+202.958*T*LN(T)-.2531915*T**2+5.18835E-05*T**3
     -8202200*T**(-1);  7.17000E+02  Y
      -6889.972+176.35482*T-32*T*LN(T);  1.30000E+03  N !
 FUNCTION GCAOLIQ    2.98150E+02  -585630.854+300.654841*T-52.862*T*LN(T)
     -1.5545E-04*T**2-1.89185E-07*T**3+489415*T**(-1);  1.83000E+03  Y
      -793806.269+1510.9933*T-212.686*T*LN(T)+.0549185*T**2
     -3.789867E-06*T**3+51730500*T**(-1);  2.88000E+03  Y
      -4191941.74+15458.9937*T-1961.24*T*LN(T)+.4554355*T**2
     -2.1019333E-05*T**3+1.291855E+09*T**(-1);  3.17200E+03  Y
      -663523.922+573.648795*T-84*T*LN(T);  6.00000E+03  N !
 FUNCTION GFEOLIQ    2.98150E+02  -137252+224.641*T-37.1815*T*LN(T);  
     3.00000E+03  N !
 FUNCTION F5989T     2.98150E+02  -489571.949+256.696884*T-46.29021*T*LN(T)
     -.004184804*T**2-1.968825E-11*T**3+59409.5*T**(-1);  2.80000E+03  Y
      -514707.198+418.345094*T-67*T*LN(T);  5.50000E+03  N !
 FUNCTION GLIQFES    2.98150E+02  -104225-1.479*T;   6.00000E+03   N !
 FUNCTION ZERO       2.98150E+02  0.0 ;  3.00000E+02  N !
 FUNCTION GCAOSOL    2.98150E+02  -653631.356+315.221233*T-51.8583*T*LN(T)
     -.0012193*T**2-2.4E-11*T**3+468307*T**(-1);  3.17200E+03  Y
      +81436.321-2001.82115*T+227.015259*T*LN(T)-.045385463*T**2
     +1.171193E-06*T**3-3.4861455E+08*T**(-1);  6.00000E+03  N !
 FUNCTION GFE2O3     2.98150E+02  -858683+827.946*T-137.0089*T*LN(T)
     +1453810*T**(-1);  3.00000E+03  N !
 FUNCTION GWUSTITE   2.98150E+02  -279318+252.848*T-46.12826*T*LN(T)
     -.0057402984*T**2;  3.00000E+03  N !
 FUNCTION GFE3O4     2.98150E+02  -161731+144.873*T-24.9879*T*LN(T)
     -.0011952256*T**2+206520*T**(-1);  3.00000E+03  N !
 FUNCTION DFE3O4     2.98150E+02  +402520-30.529*T;  3.00000E+03  N !
 FUNCTION BFE3O4     2.98150E+02  +46826-27.266*T;  3.00000E+03  N !
 FUNCTION CFE3O4     2.98150E+02  +120730-20.102*T;  3.00000E+03  N !
 FUNCTION GSPCA      2.98150E+02  -561218-51.606*T;   6.00000E+03   N !
 FUNCTION GHSERSS    2.98150E+02  -5228.956+55.401762*T-11.007*T*LN(T)
     -.026529*T**2+7.754333E-06*T**3;  3.68300E+02  Y
      -6513.769+94.676922*T-17.941839*T*LN(T)-.010895125*T**2
     +1.402558E-06*T**3+39910*T**(-1);  1.30000E+03  N !
 FUNCTION GHSEROO    2.98150E+02  +.5*GO2GAS#;   6.00000E+03   N !
 FUNCTION GFES       2.98150E+02  -107518-18.19*T+1.78*T*LN(T);   
     6.00000E+03   N !
 FUNCTION GHSERFE    2.98150E+02  +1224.83+124.134*T-23.5143*T*LN(T)
     -.00439752*T**2-5.89269E-08*T**3+77358.5*T**(-1);  1.81100E+03  Y
      -25384.451+299.31255*T-46*T*LN(T)+2.2960305E+31*T**(-9);  6.00000E+03  
     N !
 FUNCTION GCABCC     2.98150E+02  -7020.852+142.970155*T-28.2541*T*LN(T)
     +.0072326*T**2-4.500217E-06*T**3+60578*T**(-1);  7.16000E+02  Y
      +1640.475+1.999694*T-6.276*T*LN(T)-.0161921*T**2-523000*T**(-1);  
     1.11500E+03  Y
      -142331.096+1023.54905*T-143.872698*T*LN(T)+.032543127*T**2
     -1.704079E-06*T**3+25353771*T**(-1);  3.00000E+03  N !
 FUNCTION GPFEBCC    2.98150E+02  +YFEBCC#*EXP(ZFEBCC#);   6.00000E+03   N !
 FUNCTION GBCCSS     2.98150E+02  +GHSERSS#+105000;  1.30100E+03  N !
 FUNCTION UN_ASS     2.98150E+02  0.0 ;  3.00000E+02  N !
 FUNCTION GOSOL      2.98150E+02  +.5*GO2GAS#+65*T;  3.00000E+03  N !
 FUNCTION GHSERCA    2.98150E+02  -4955.062+72.794266*T-16.3138*T*LN(T)
     -.01110455*T**2-133574*T**(-1);  1.11500E+03  Y
      -107304.428+799.982066*T-114.292247*T*LN(T)+.023733814*T**2
     -1.2438E-06*T**3+18245540*T**(-1);  3.00000E+03  N !
 FUNCTION GFEFCC     2.98150E+02  -1462.4+8.282*T-1.15*T*LN(T)+6.4E-04*T**2
     +GHSERFE#;  1.81100E+03  Y
      -27098.266+300.25256*T-46*T*LN(T)+2.78854E+31*T**(-9);  6.00000E+03  N 
     !
 FUNCTION GPFEFCC    298.15 0.0; 6000.00  N !
 FUNCTION GFCCSS     2.98150E+02  +GHSERSS#+105000;  1.30100E+03  N !
 FUNCTION GPFELIQ    298.15 0.0; 6000.00  N !
 FUNCTION GO2GAS     2.98150E+02  -6961.74451-76729.7484*T**(-1)
     -51.0057202*T-22.2710136*T*LN(T)-.0101977469*T**2+1.32369208E-06*T**3;  
     1.00000E+03  Y
      -13137.5203+525809.556*T**(-1)+25.3200332*T-33.627603*T*LN(T)
     -.00119159274*T**2+1.35611111E-08*T**3;  3.30000E+03  Y
      -27973.4908+8766421.4*T**(-1)+62.5195726*T-37.9072074*T*LN(T)
     -8.50483772E-04*T**2+2.14409777E-08*T**3;  6.00000E+03  N !
 FUNCTION YFEBCC     2.98150E+02  +VFEBCC#*EXP(-EFEBCC#);   6.00000E+03   N !
 FUNCTION ZFEBCC     2.98150E+02  +1*LN(XFEBCC#);   6.00000E+03   N !
 FUNCTION VFEBCC     2.98150E+02  +7.042095E-06*EXP(AFEBCC#);   6.00000E+03  
      N !
 FUNCTION EFEBCC     2.98150E+02  +1*LN(CFEBCC#);   6.00000E+03   N !
 FUNCTION XFEBCC     2.98150E+02  +1*EXP(.7874195*DFEBCC#)-1;   6.00000E+03  
      N !
 FUNCTION AFEBCC     2.98150E+02  +2.3987E-05*T+1.2845E-08*T**2;   
     6.00000E+03   N !
 FUNCTION CFEBCC     2.98150E+02  +2.20949565E-11+2.41329523E-16*T;   
     6.00000E+03   N !
 FUNCTION DFEBCC     2.98150E+02  +1*LN(BFEBCC#);   6.00000E+03   N !
 FUNCTION BFEBCC     2.98150E+02  +1+2.80599565E-11*P+3.06481523E-16*T*P;   
     6.00000E+03   N !
 
$ FUNCTION GCAOSOL    2.98150E+02  -653631.356+315.221233*T-51.8583*T*LN(T)
$     -.0012193*T**2-2.4E-11*T**3+468307*T**(-1);  3.17200E+03  Y
$      +81436.321-2001.82115*T+227.015259*T*LN(T)-.045385463*T**2
$     +1.171193E-06*T**3-3.4861455E+08*T**(-1);  6.00000E+03  N !
$ FUNCTION GWUSTITE   2.98150E+02  -279318+252.848*T-46.12826*T*LN(T)
$     -.0057402984*T**2;  3.00000E+03  N !
 FUNCTION AWUSTITE   2.98150E+02  -55384+27.888*T;  3.00000E+03  N !
 FUNCTION GHAL0      2.98150E+02  24392;   6.00000E+03   N !
 FUNCTION GHAL1      2.98150E+02  6712;   6.00000E+03   N !
 FUNCTION GHAL2      2.98150E+02  5592;   6.00000E+03   N !
$ FUNCTION GFES       2.98150E+02  -107518-18.19*T+1.78*T*LN(T);
$     6.00000E+03   N !
 FUNCTION F5560T     2.98150E+02  -1482345.02+695.384425*T-115.8968*T*LN(T)
     -.0196648*T**2+1255200*T**(-1);  1.47300E+03  Y
      -1510302.47+1044.18723*T-165*T*LN(T);  1.73300E+03  Y
      -1510302.47+1044.18723*T-165*T*LN(T);  2.00000E+03  N !
 FUNCTION F10187T    2.98150E+02  -992973.339+1186.52875*T-202.5717*T*LN(T)
     +.1482117*T**2-6.05855E-05*T**3+2041160*T**(-1);  5.00000E+02  Y
      -973723.907+604.515823*T-101.4566*T*LN(T)-.05246025*T**2
     +8.052875E-06*T**3+1616091*T**(-1);  9.00000E+02  Y
      -996089.458+928.757498*T-151.034*T*LN(T)-.00558428*T**2
     -1.205236E-08*T**3+3396634*T**(-1);  2.00000E+03  N !
 FUNCTION F10264T    2.98150E+02  -2764516.15+3430.19854*T-582.873*T*LN(T)
     +.4742773*T**2-1.85630167E-04*T**3+5972030*T**(-1);  5.00000E+02  Y
      -2700730.01+1595.71985*T-266.0647*T*LN(T)-.13915145*T**2
     +2.14109167E-05*T**3+4227304.5*T**(-1);  9.00000E+02  Y
      -2758997.38+2446.04288*T-396.2039*T*LN(T)-.01546051*T**2
     +4.84312E-08*T**3+8810665*T**(-1);  1.70000E+03  Y
      -3209228.82+5208.21945*T-763.6637*T*LN(T)+.11768755*T**2
     -8.99071833E-06*T**3+1.121103E+08*T**(-1);  2.00000E+03  N !
 
 
 TYPE_DEFINITION % SEQ *!
 DEFINE_SYSTEM_DEFAULT ELEMENT 2 !
 DEFAULT_COMMAND DEF_SYS_ELEMENT VA /- !


 PHASE GAS:G %  1  1.0  !
    CONSTITUENT GAS:G :CA,CA1O1,CA1S1,CA2,FE,FE1O1,FE1O2,FE1S1,FE2,O1S1,O1S2,
    O2,O2S1,O3,O3S1,S,S2,S3,S4,S5,S6,S7,S8 :  !

   PARAMETER G(GAS,CA;0)  2.98150E+02  +F5783T#+R#*T*LN(1E-05*P);   
  6.00000E+03   N REF2 !
   PARAMETER G(GAS,CA1O1;0)  2.98150E+02  +F5953T#+R#*T*LN(1E-05*P);   
  6.00000E+03   N REF2 !
   PARAMETER G(GAS,CA1S1;0)  2.98150E+02  +F5992T#+R#*T*LN(1E-05*P);   
  6.00000E+03   N REF2 !
   PARAMETER G(GAS,CA2;0)  2.98150E+02  +F6014T#+R#*T*LN(1E-05*P);   
  6.00000E+03   N REF2 !
   PARAMETER G(GAS,FE;0)  2.98150E+02  +F10703T#+R#*T*LN(1E-05*P);   
  6.00000E+03   N REF2 !
   PARAMETER G(GAS,FE1O1;0)  2.98150E+02  +F10756T#+R#*T*LN(1E-05*P);   
  6.00000E+03   N REF2 !
   PARAMETER G(GAS,FE1O2;0)  2.98150E+02  +F10761T#+R#*T*LN(1E-05*P);   
  6.00000E+03   N REF2 !
   PARAMETER G(GAS,FE1S1;0)  2.98150E+02  +F10794T#+R#*T*LN(1E-05*P);   
  6.00000E+03   N REF2 !
   PARAMETER G(GAS,FE2;0)  2.98150E+02  +F10717T#+R#*T*LN(1E-05*P);   
  6.00000E+03   N REF2 !
   PARAMETER G(GAS,O1S1;0)  2.98150E+02  +F14527T#+R#*T*LN(1E-05*P);   
  6.00000E+03   N REF2 !
   PARAMETER G(GAS,O1S2;0)  2.98150E+02  +F14532T#+R#*T*LN(1E-05*P);   
  6.00000E+03   N REF2 !
   PARAMETER G(GAS,O2;0)  2.98150E+02  +F14375T#+R#*T*LN(1E-05*P);   
  6.00000E+03   N REF2 !
   PARAMETER G(GAS,O2S1;0)  2.98150E+02  +F14849T#+R#*T*LN(1E-05*P);   
  6.00000E+03   N REF2 !
   PARAMETER G(GAS,O3;0)  2.98150E+02  +F14415T#+R#*T*LN(1E-05*P);   
  6.00000E+03   N REF2 !
   PARAMETER G(GAS,O3S1;0)  2.98150E+02  +F15120T#+R#*T*LN(1E-05*P);   
  6.00000E+03   N REF2 !
   PARAMETER G(GAS,S;0)  2.98150E+02  +F16008T#+R#*T*LN(1E-05*P);   
  6.00000E+03   N REF2 !
   PARAMETER G(GAS,S2;0)  2.98150E+02  +F16023T#+R#*T*LN(1E-05*P);   
  6.00000E+03   N REF2 !
   PARAMETER G(GAS,S3;0)  2.98150E+02  +F16033T#+R#*T*LN(1E-05*P);   
  6.00000E+03   N REF2 !
   PARAMETER G(GAS,S4;0)  2.98150E+02  +F16042T#+R#*T*LN(1E-05*P);   
  6.00000E+03   N REF2 !
   PARAMETER G(GAS,S5;0)  2.98150E+02  +F16046T#+R#*T*LN(1E-05*P);   
  6.00000E+03   N REF2 !
   PARAMETER G(GAS,S6;0)  2.98150E+02  +F16051T#+R#*T*LN(1E-05*P);   
  6.00000E+03   N REF2 !
   PARAMETER G(GAS,S7;0)  2.98150E+02  +F16056T#+R#*T*LN(1E-05*P);   
  6.00000E+03   N REF2 !
   PARAMETER G(GAS,S8;0)  2.98150E+02  +F16060T#+R#*T*LN(1E-05*P);   
  6.00000E+03   N REF2 !


 PHASE IONIC_LIQ:Y %  2 8   4 !
    CONSTITUENT IONIC_LIQ:Y :CA+2,FE+2 : O-2,S-2,VA,FEO3/2,S :  !

   PARAMETER G(IONIC_LIQ,CA+2:O-2;0)  2.98150E+02  +2*GCAOLIQ#;   
  6.00000E+03   N REF7 !
   PARAMETER G(IONIC_LIQ,FE+2:O-2;0)  2.98150E+02  +4*GFEOLIQ#;   
  6.00000E+03   N REF9 !
   PARAMETER G(IONIC_LIQ,CA+2:S-2;0)  2.98150E+02  +2*F5989T#+145000-49.4*T; 
    6.00000E+03   N REF286 !
   PARAMETER G(IONIC_LIQ,FE+2:S-2;0)  2.98150E+02  +2*GLIQFES#+2*GFELIQ#
  +2*GSSLIQ#;  2.00000E+03  N REF272 !
   PARAMETER G(IONIC_LIQ,CA+2:VA;0)  2.98150E+02  +GCALIQ#;   6.00000E+03   
  N REF14 !
   PARAMETER G(IONIC_LIQ,FE+2:VA;0)  2.98150E+02  +GFELIQ#;   6.00000E+03   
  N REF14 !
   PARAMETER G(IONIC_LIQ,FEO3/2;0)  2.98150E+02  +2.5*GFEOLIQ#-89819
  +39.962*T;   6.00000E+03   N REF9 !
   PARAMETER G(IONIC_LIQ,S;0)  2.98150E+02  +GSSLIQ#;  2.00000E+03  N REF14 !
   PARAMETER G(IONIC_LIQ,CA+2,FE+2:O-2;0)  2.98150E+02  -119593+26.125*T;   
  6.00000E+03   N REF17 !
   PARAMETER G(IONIC_LIQ,CA+2,FE+2:O-2;1)  2.98150E+02  -38729+25.427*T;   
  6.00000E+03   N REF17 !
   PARAMETER G(IONIC_LIQ,CA+2,FE+2:O-2;2)  2.98150E+02  5370;   6.00000E+03  
   N REF17 !
   PARAMETER G(IONIC_LIQ,CA+2,FE+2:O-2,FEO3/2;0)  2.98150E+02  91713;   
  6.00000E+03   N REF17 !
   PARAMETER G(IONIC_LIQ,CA+2:O-2,VA;0)  2.98150E+02  17331;   6.00000E+03   
  N REF17 !
   PARAMETER G(IONIC_LIQ,CA+2:O-2,FEO3/2;0)  2.98150E+02  -226730+12.252*T;  
   6.00000E+03   N REF17 !
   PARAMETER G(IONIC_LIQ,CA+2:O-2,FEO3/2;1)  2.98150E+02  -15255;   
  6.00000E+03   N REF17 !
   PARAMETER G(IONIC_LIQ,CA+2:O-2,FEO3/2;2)  2.98150E+02  11262;   
  6.00000E+03   N REF17 !
   PARAMETER G(IONIC_LIQ,CA+2:O-2,S-2;0)  2.98150E+02  +ZERO#;   6.00000E+03 
    N REF285 !
   PARAMETER G(IONIC_LIQ,CA+2:O-2,S;0)  2.98150E+02  500000;   6.00000E+03   
  N REF0 !
   PARAMETER G(IONIC_LIQ,FE+2:O-2,VA;0)  2.98150E+02  +176681-16.368*T;  
  3.00000E+03  N REF9 !
   PARAMETER G(IONIC_LIQ,FE+2:O-2,VA;1)  2.98150E+02  -65655+30.869*T;  
  3.00000E+03  N REF9 !
   PARAMETER G(IONIC_LIQ,FE+2:O-2,FEO3/2;0)  2.98150E+02  -26362;  
  3.00000E+03  N REF9 !
   PARAMETER G(IONIC_LIQ,FE+2:O-2,FEO3/2;1)  2.98150E+02  13353;  
  3.00000E+03  N REF9 !
   PARAMETER G(IONIC_LIQ,CA+2,FE+2:S-2;0)  2.98150E+02  -55000;  2.00000E+03 
   N REF271 !
   PARAMETER G(IONIC_LIQ,CA+2:S-2,VA;0)  2.98150E+02  17331;  2.00000E+03  N 
  REF271 !
   PARAMETER G(IONIC_LIQ,CA+2:S-2,S;0)  2.98150E+02  100000;   6.00000E+03   
  N REF271 !
   PARAMETER G(IONIC_LIQ,FE+2:S-2,VA;0)  2.98150E+02  +103758-46.3734*T;  
  2.00000E+03  N REF272 !
   PARAMETER G(IONIC_LIQ,FE+2:S-2,VA;1)  2.98150E+02  -27530;  2.00000E+03  
  N REF272 !
   PARAMETER G(IONIC_LIQ,FE+2:S-2,S;0)  2.98150E+02  +96626-43.614*T;  
  2.00000E+03  N REF272 !
   PARAMETER G(IONIC_LIQ,FE+2:S-2,S;1)  2.98150E+02  -145966+49.429*T;  
  2.00000E+03  N REF272 !
   PARAMETER G(IONIC_LIQ,CA+2,FE+2:VA;0)  2.98150E+02  +189491-36.588*T;  
  3.00000E+03  N REF208 !
   PARAMETER G(IONIC_LIQ,CA+2:VA,FEO3/2;0)  2.98150E+02  +80*T;  3.00000E+03 
   N REF17 !
   PARAMETER G(IONIC_LIQ,FE+2:VA,FEO3/2;0)  2.98150E+02  110000;  
  3.00000E+03  N REF9 !


 PHASE ALABANDITE  %  2 1   1 !
    CONSTITUENT ALABANDITE  :CA,FE : S :  !

   PARAMETER G(ALABANDITE,CA:S;0)  2.98150E+02  +F5989T#+4000+.6*T;   
  6.00000E+03   N REF286 !
   PARAMETER G(ALABANDITE,FE:S;0)  2.98150E+02  +5380+GFES#+GHSERFE#
  +GHSERSS#-2.37*T;   6.00000E+03   N REF273 !
   PARAMETER G(ALABANDITE,CA,FE:S;0)  2.98150E+02  46000;   6.00000E+03   N 
  REF287 !


 TYPE_DEFINITION & GES A_P_D BCC_A2 MAGNETIC  -1.0    4.00000E-01 !
 PHASE BCC_A2  %&  2 1   3 !
    CONSTITUENT BCC_A2  :CA,FE%,S : O,VA% :  !

   PARAMETER G(BCC_A2,CA:O;0)  2.98150E+02  +GCABCC#+3*GOSOL#;   6.00000E+03  
   N REF0 !
   PARAMETER G(BCC_A2,FE:O;0)  2.98150E+02  +GHSERFE#+3*GOSOL#;  3.00000E+03 
   N REF43 !
       PARA G(BCC_A2,S:O;0) 298.15 +GBCCSS#+3*GOSOL#+100000; 6000 N!
   PARAMETER G(BCC_A2,CA:VA;0)  2.98150E+02  +GCABCC#;  3.00000E+03  N REF14 !
   PARAMETER G(BCC_A2,FE:VA;0)  2.98150E+02  +GHSERFE#+GPFEBCC#;   
  6.00000E+03   N REF1 !
   PARAMETER TC(BCC_A2,FE:VA;0)  2.98150E+02  1043;   6.00000E+03   N REF1 !
   PARAMETER BMAGN(BCC_A2,FE:VA;0)  2.98150E+02  2.22;   6.00000E+03   N 
  REF1 !
   PARAMETER G(BCC_A2,S:VA;0)  2.98150E+02  +GBCCSS#;  1.30100E+03  N REF14 !
   PARAMETER G(BCC_A2,FE:O,VA;0)  2.98150E+02  -517549+71.83*T;  3.00000E+03 
   N REF43 !
   PARAMETER G(BCC_A2,CA,FE:VA;0)  2.98150E+02  +189491-36.588*T;  
  3.00000E+03  N REF208 !
   PARAMETER G(BCC_A2,FE,S:VA;0)  2.98150E+02  -119675-18.7201*T;  
  2.00000E+03  N REF272 !


 PHASE C1A6  %  3 1   12   19 !
    CONSTITUENT C1A6  :CA+2 : FE+3 : O-2 :  !

   PARAMETER G(C1A6,CA+2:FE+3:O-2;0)  2.98150E+02  +GCAOSOL#+6*GFE2O3#-69225
  +75*T;   6.00000E+03   N REF0 !


 PHASE C2F  %  3 2   2   5 !
    CONSTITUENT C2F  :CA+2 : FE+3 : O-2 :  !

   PARAMETER G(C2F,CA+2:FE+3:O-2;0)  2.98150E+02  -2220283+1525.422*T
  -251.3585*T*LN(T)+2819950*T**(-1);   6.00000E+03   N REF17 !


 PHASE C4WF4  %  4 4   1   8   17 !
    CONSTITUENT C4WF4  :CA+2 : FE+2 : FE+3 : O-2 :  !

   PARAMETER G(C4WF4,CA+2:FE+2:FE+3:O-2;0)  2.98150E+02  +4*GCAOSOL#
  +GWUSTITE#+4*GFE2O3#-180314;   6.00000E+03   N REF17 !


 PHASE C4WF8  %  4 4   1   16   29 !
    CONSTITUENT C4WF8  :CA+2 : FE+2 : FE+3 : O-2 :  !
