$**************************************************************************
$****************************** SN-AG-CU.TDB ******************************
$***************************** 2012.4.15 ********************************** 
 ELEMENT /-   ELECTRON_GAS             0.0000E+00  0.0000E+00  0.0000E+00 !
 ELEMENT VA   VACUUM                   0.0000E+00  0.0000E+00  0.0000E+00 !
 ELEMENT SN   BCT_A5                   118.690000  6323.00000  51.1800000 !
 ELEMENT CU   FCC_A1                   63.546E000  5004.10000  33.1500000 !
 ELEMENT AG   FCC_A1                   107.868200  5745.00000  42.5500000 !
 ELEMENT IN   TET_A6                   114.820000  6610.00000  57.6500000 !
$-------------------------------------------------------------------------- 
$-------CU------
 FUNCTION GCUFCC    298.15  -7770.458+130.485235*T-24.112392*T*LN(T)
     -.00265684*T**2+1.29223E-07*T**3+52478*T**(-1);  1357.77  Y
     -13542.026+183.803828*T-31.38*T*LN(T)+3.642E+29*T**(-9);  3200 N !
 FUNCTION GCUBCC     2.98150E+02  +4017-1.255*T+GCUFCC;   6000   N !
 FUNCTION GCULIQ     2.98150E+02  +12964.736-9.511904*T-5.849E-21*T**7
  +GCUFCC; 1357.77 Y
  +13495.481-9.922344*T-3.642E29*T**(-9)+GCUFCC; 6000   N !
 FUNCTION GCUBCT     2.98150E+02  +4187+GCUFCC;   6000   N !

$-------SN------
 FUNCTION GSNBCT   100  -7958.517+122.765451*T-25.858*T*LN(T)
      +0.51185E-3*T**2-3.192767E-6*T**3+18440*T**(-1);   250  Y
      -5855.135+65.443315*T-15.961*T*LN(T)-18.8702E-3*T**2
      +3.121167E-6*T**3-61960*T**(-1);     505.08 Y
      2524.724+4.005269*T-8.2590486*T*LN(T)-16.814429E-3*T**2
      +2.623131E-6*T**3-1081244*T**(-1)-1.2307E25*T**(-9); 800  Y
      -8256.959+138.99688*T-28.4512*T*LN(T)-1.2307E25*T**(-9);  3000 N !
 FUNCTION GSNLIQ  100 7103.092-14.087767*T+1.47031E-18*T**7+GSNBCT; 505.08 Y
      6971.587-13.814382*T+1.2307E25*T**(-9)+GSNBCT;  3000 N !
 FUNCTION GSNFCC   298.15  5510-8.46*T+GSNBCT;  3000 N !
 FUNCTION GSNHCP  298.15  3900-7.646*T+GSNBCT;  3000 N !
 FUNCTION GSNBCC  298.15  4400-6*T+GSNBCT;  3000 N !
      
$-------AG------
 FUNCTION GAGFCC   298.15  -7209.512+118.202013*T-23.8463314*T*LN(T)
      -1.790585E-3*T**2-0.398587E-6*T**3-12011*T**(-1);   1234.93  Y
      -15095.252+190.266404*T-33.472*T*LN(T)+1.412E29*T**(-9);  3000 N !
 FUNCTION GAGLIQ     2.98150E+02  +11025.076-8.891021*T-1.034E-20*T**7
  +GAGFCC; 1357.77 Y
  +11508.141-9.301747*T-1.412*T**(-9)+GAGFCC; 6000   N !
 FUNCTION GAGHCP     2.98150E+02  +300+0.3*T+GAGFCC;   6000   N !
 FUNCTION GAGBCT     2.98150E+02  +4184.1+GAGFCC;   6000   N !
$------IN--------
 FUNCTION GINTET  298.15    -6978.89+92.338115*T-21.8386*T*LN(T)
  -5.72566E-3*T**2-2.120321E-6*T**3-22906*T**(-1);      429.75 Y
  -7033.516+124.476588*T-27.4562*T*LN(T)+0.54607E-3*T**2
  -0.08367E-6*T**3-211708*T**(-1)+3.53E+22*T**(-9); 3800.00 N !
 
 FUNCTION GINLIQ 298.15 3282.092-7.63686*T-5.59E-20*T**7
                                                 +GINTET; 1768.00 Y
            3283.706-7.640804*T-3.53E+22*T**(-9)+GINTET; 3800.00 N !
 FUNCTION GINFCC 298.15 123-0.1988*T+GINTET; 3800.00 N !

 FUNCTION UN_ASS 298.15 0; 300 N !
$--------------------------------------------------------------------------
 TYPE_DEFINITION % SEQ *!
 DEFINE_SYSTEM_DEFAULT ELEMENT 2 !
 DEFAULT_COMMAND DEF_SYS_ELEMENT VA /- !
$
$----LIQUID----
 PHASE LIQUID  % 2  1  1.0  !
   CONSTITUENT LIQUID  :SN,AG,IN,CU:VA :  !
 PARAMETER G(LIQUID,SN:VA;0)  2.98150E+02  GSNLIQ;                  3000 N !
 PARAMETER G(LIQUID,AG:VA;0)  2.98150E+02  GAGLIQ;                  3000 N !
 PARAMETER G(LIQUID,IN:VA;0)  2.98150E+02  GINLIQ;                  3000 N !
 PARAMETER G(LIQUID,AG,IN:VA;0)  298.15 -26499.412+66.148718*T
 -8.6214682*T*LN(T); 3000 N !
 PARAMETER G(LIQUID,AG,IN:VA;1)  298.15 -38058.4+143.60133*T
 -17.657918*T*LN(T); 3000 N !
 PARAMETER G(LIQUID,AG,IN:VA;2)  298.15  -16572.628+121.0128*T
 -15.89588*T*LN(T); 3000 N !
 PARAMETER G(LIQUID,AG,IN:VA;3)  298.15  5791.2978; 3000 N !
 PARAMETER G(LIQUID,SN,IN:VA;0)  298.15 -711-1.6934*T
 -8.6214682*T*LN(T); 3000 N !
 PARAMETER G(LIQUID,SN,IN:VA;1)  298.15 -64-1.3592*T
 -17.657918*T*LN(T); 3000 N !
 PARAMETER G(LIQUID,SN,AG:VA;0)  298.15  -399.49-31.42004*T
 +3.081837*T*LN(T);      3000 N !
 PARAMETER G(LIQUID,SN,AG:VA;1)  2.98150E+02  -18150.65+5.87501*T;     3000 N !
 PARAMETER G(LIQUID,SN,AG:VA;2)  2.98150E+02  -12009.03+5.18355*T;     3000 N !
 PARAMETER G(LIQUID,SN,AG,IN:VA;0)  298.15 73613.4942-15.5406011*T;  3000 N !
 PARAMETER G(LIQUID,SN,AG,IN:VA;1)  298.15  30620.7639-21.1136487*T; 3000 N !
 PARAMETER G(LIQUID,SN,AG,IN:VA;2)  298.15  5570.90815-4.55983225*T; 3000 N !
$
$