$ Previous version: MgMnNi-Shuhong Liu-to-Wang-PS-Nov-27-2013
$ Deleted unstable phases: like FeSi3 AlCu
$ Modified Mg6MnNi3 to Mg3MnNi2
$ added G(LIQUID,MG,MN,NI;0)  2.98150E+02 -100000+25*T
$ Database file written 2013-11-27
$ From database: USER                    
 ELEMENT /-   ELECTRON_GAS              0.0000E+00  0.0000E+00  0.0000E+00!
 ELEMENT VA   VACUUM                    0.0000E+00  0.0000E+00  0.0000E+00!
 ELEMENT MG   HCP_A3                    2.4305E+01  4.9980E+03  3.2671E+01!
 ELEMENT MN   CBCC_A12                  5.4938E+01  4.9960E+03  3.2008E+01!
 ELEMENT NI   FCC_A1                    5.8690E+01  4.7870E+03  2.9797E+01!
 ELEMENT H    1/2_MOLE_H2(GAS)          1.0079E+00  4.2340E+03  6.5285E+01!

 SPECIES H2                          H2! 
 SPECIES MG1                         MG!
 SPECIES MG2                         MG2!
 SPECIES NI2                         NI2!
 SPECIES VA-2                        VA1/-2!
 SPECIES VA-4                        VA1/-4!
 
FUNCTION F10598T    2.98150E+02  +211801.621+24.4989816*T-20.78611*T*LN(T); 
       6.00000E+03   N !
 FUNCTION F11004T    2.98150E+02  -9522.97393+78.5273873*T-31.35707*T*LN(T)
     +.0027589925*T**2-7.46390667E-07*T**3+56582.3*T**(-1);  1.00000E+03  Y
      +180.10884-15.6128262*T-17.84857*T*LN(T)-.00584168*T**2
     +3.14618667E-07*T**3-1280036*T**(-1);  2.10000E+03  Y
      -18840.1661+92.3120249*T-32.05082*T*LN(T)-.0010728235*T**2
     +1.14281783E-08*T**3+3561002.5*T**(-1);  6.00000E+03  N !	    
 
 
 
 FUNCTION GLIQMG     2.98150E+02  +8202.243-8.83693*T+GHSERMG#
     -8.0176E-20*T**7;  9.23000E+02  Y
      +8690.316-9.392158*T+GHSERMG#-1.038192E+28*T**(-9);  6.00000E+03  N !
 FUNCTION V0LIQMG    2.98150E+02  1.51E-05;   6.00000E+03   N !
 FUNCTION VADFLT     2.98150E+02  +1E-05*THREE#*DELTAT#;  3.00000E+03  N !
 FUNCTION GLIQMN     2.98150E+02  +17859.91-12.6208*T-4.41929E-21*T**7
     +GHSERMN#;  1.51900E+03  Y
      +18739.51-13.2288*T-1.656847E+30*T**(-9)+GHSERMN#;  6.00000E+03  N !
 FUNCTION GLIQNI     2.98150E+02  +16414.686-9.397*T-3.82318E-21*T**7
     +GHSERNI#;  1.72800E+03  Y
      +18290.88-10.537*T-1.12754E+31*T**(-9)+GHSERNI#;  6.00000E+03  N !
 FUNCTION GHSERMG    2.98150E+02  -8367.34+143.675547*T-26.1849782*T*LN(T)
     +4.858E-04*T**2-1.393669E-06*T**3+78950*T**(-1);  9.23000E+02  Y
      -14130.185+204.716215*T-34.3088*T*LN(T)+1.038192E+28*T**(-9);  
     3.00000E+03  N !
 FUNCTION PP         2.98150E+02  +P-100000;   6.00000E+03   N !
 FUNCTION GFCCMN     2.98150E+02  -3439.3+131.884*T-24.5177*T*LN(T)
     -.006*T**2+69600*T**(-1);  1.51900E+03  Y
      -26070.1+309.6664*T-48*T*LN(T)+3.86196E+30*T**(-9);  2.00000E+03  N !

 FUNCTION GHSERNI    2.98150E+02  -5179.159+117.854*T-22.096*T*LN(T)
     -.0048407*T**2;  1.72800E+03  Y
      -27840.655+279.135*T-43.1*T*LN(T)+1.12754E+31*T**(-9);  6.00000E+03  N 
     !

 FUNCTION GBCCMG     2.98150E+02  +3100-2.1*T+GHSERMG#;   6.00000E+03   N !
 
 FUNCTION GBCCMN     2.98150E+02  -3235.3+127.85*T-23.7*T*LN(T)
     -.00744271*T**2+60000*T**(-1);  1.51900E+03  Y
      -23188.83+307.7043*T-48*T*LN(T)+1.265152E+30*T**(-9);  6.00000E+03  N !
 
 FUNCTION GBCCNI     2.98150E+02  +8715.084-3.556*T+GHSERNI#;   6.00000E+03  
      N !
 
 FUNCTION DELTAT     2.98150E+02  +T-298.15;   6.00000E+03   N !
 FUNCTION GHSERMN    2.98150E+02  -8115.28+130.059*T-23.4582*T*LN(T)
     -.00734768*T**2+69827*T**(-1);  1.51900E+03  Y
      -28733.41+312.2648*T-48*T*LN(T)+1.656847E+30*T**(-9);  6.00000E+03  N !

 FUNCTION F12577T    2.98150E+02  +136346.96-4.82603167*T-20.78595*T*LN(T)
     -9.778455E-08*T**2;  1.90000E+03  Y
      +131004.76+25.2078895*T-24.73039*T*LN(T)+.001300831*T**2
     -8.09592167E-08*T**3+1361843*T**(-1);  2.70000E+03  Y
      +108558.443+123.736524*T-37.20356*T*LN(T)+.004390735*T**2
     -2.24912E-07*T**3+8958715*T**(-1);  3.64000E+03  Y
      +137405.469+24.8050173*T-25.1271*T*LN(T)+.002179723*T**2
     -1.502275E-07*T**3-3744678*T**(-1);  5.40000E+03  Y
      +453901.917-789.444217*T+70.54811*T*LN(T)-.010649025*T**2
     +1.716475E-07*T**3-1.996814E+08*T**(-1);  9.20000E+03  Y
      -320526.4+427.791915*T-63.73726*T*LN(T)-2.847232E-04*T**2
     +2.15099667E-08*T**3+6.39436E+08*T**(-1);  1.00000E+04  N !
 FUNCTION F12657T    2.98150E+02  +265944.946-87.7878521*T-20.93983*T*LN(T)
     +1.552631E-04*T**2-2.450615E-08*T**3-152571.35*T**(-1);  1.90000E+03  Y
      +60639.4722+1067.97947*T-172.7914*T*LN(T)+.05046705*T**2
     -3.17995833E-06*T**3+52217650*T**(-1);  3.10000E+03  Y
      +183972.546-306.017225*T+38.52094*T*LN(T)-.06477725*T**2
     +1.27170267E-06*T**3-4.2909405E+08*T**(-1);  3.80000E+03  Y
      +3910381.27-11627.1626*T+1374.666*T*LN(T)-.24531065*T**2
     +7.44476833E-06*T**3-1.5282495E+09*T**(-1);  4.80000E+03  Y
      -5097786.05+12220.6183*T-1438.848*T*LN(T)+.1458377*T**2
     -2.76687E-06*T**3+3.8878475E+09*T**(-1);  6.00000E+03  N !
 FUNCTION F12710T    2.98150E+02  +276164.054-34.4987551*T-20.786*T*LN(T);  
     1.57500E+03  Y
      +275547.585-29.248057*T-21.52064*T*LN(T)+3.819474E-04*T**2
     -3.66030333E-08*T**3+95180.95*T**(-1);  2.10000E+03  Y
      +274521.741-16.384493*T-23.35302*T*LN(T)+.0013469965*T**2
     -1.18903067E-07*T**3;  2.40000E+03  N !
 FUNCTION F13480T    2.98150E+02  +414972.341-18.8056393*T-24.34*T*LN(T)
     +.0046806645*T**2-3.40084167E-06*T**3;  4.00000E+02  Y
      +415486.817-40.9586295*T-20.26685*T*LN(T)-.006038615*T**2
     +1.2890125E-06*T**3;  8.00000E+02  Y
      +411065.296+18.3133675*T-29.24746*T*LN(T)+.0021365025*T**2
     -1.14496517E-07*T**3+412765.95*T**(-1);  2.60000E+03  Y
      +411224.713+11.7609247*T-28.29857*T*LN(T)+.001646801*T**2
     -7.78248167E-08*T**3+785084*T**(-1);  5.00000E+03  Y
      +406354.126+39.4541897*T-31.80175*T*LN(T)+.0024133565*T**2
     -1.0515525E-07*T**3;  1.00000E+04  N !
 FUNCTION F13543T    2.98150E+02  +638073.28-68.1901937*T-24.897*T*LN(T)
     -.0313584*T**2+5.93355333E-06*T**3-14215*T**(-1);  8.00000E+02  Y
      +611401.773+268.08482*T-75.25401*T*LN(T)+.01088525*T**2
     -7.08741667E-07*T**3+2633835*T**(-1);  2.10000E+03  Y
      +637459.339+72.071267*T-48.587*T*LN(T)-9.09E-05*T**2
     +9.12933333E-08*T**3-1191755*T**(-1);  4.50000E+03  Y
      +564540.781+329.59901*T-80.11301*T*LN(T)+.00578085*T**2
     -1.08841667E-07*T**3+29137900*T**(-1);  6.00000E+03  N !
 
 FUNCTION LMNNIF0    2.98150E+02  -20455.75-11.79*T;   6.00000E+03   N !
 FUNCTION LMNNIF1    2.98150E+02  +15581.51-8.49*T;   6.00000E+03   N !
 FUNCTION GMNNI3     2.98150E+02  -21016.39;   6.00000E+03   N !
 FUNCTION GMN3NI     2.98150E+02  -20080.58;   6.00000E+03   N !
 FUNCTION GMN2NI2    2.98150E+02  -30156.68;   6.00000E+03   N !
 FUNCTION LRMNNI     2.98150E+02  -6829;   6.00000E+03   N !
 FUNCTION VSERNI     2.98150E+02  6.52857E-06;   6.00000E+03   N !
 FUNCTION GHCPNI     2.98150E+02  +1046+1.2552*T+GHSERNI#;   6.00000E+03   N 
     !
 FUNCTION THREE      2.98150E+02  3;   6.00000E+03   N !
 FUNCTION HALF       2.98150E+02  .5;   6.00000E+03   N !
 FUNCT VHCPMG    298.15  +13.69918E-6+8.356E-10*T+4.4E-13*T**2+2.14E-6*T**(-1);
                                             6000 N !
 FUNCT VFCCMG    298.15  +VHCPMG-0.2946E-6;  6000 N !
 FUNCTION UN_ASS 298.15 0; 300 N !
 
 TYPE_DEFINITION % SEQ *!
 DEFINE_SYSTEM_DEFAULT ELEMENT 2 !
 DEFAULT_COMMAND DEF_SYS_ELEMENT VA /- !


$PHASE GAS:G %  1  1.0  !
$   CONSTITUENT GAS:G :H,H2,MG,MG2,MN,NI,NI2 :  !

$  PARAMETER G(GAS,MG;0)  2.98150E+02  +F12577T#+RTLNP#;   6.00000E+03   N 
$  REF120 !
$   PARAMETER G(GAS,MG2;0)  2.98150E+02  +F12657T#+RTLNP#;   6.00000E+03   N 
$  REF120 !
$   PARAMETER G(GAS,MN;0)  2.98150E+02  +F12710T#+RTLNP#;   6.00000E+03   N 
$  REF120 !
$   PARAMETER G(GAS,NI;0)  2.98150E+02  +F13480T#+R#*T*LN(1E-05*P);   
$  6.00000E+03   N REF120 !
$   PARAMETER G(GAS,NI2;0)  2.98150E+02  +F13543T#+R#*T*LN(1E-05*P);   
$  6.00000E+03   N REF120 !
$  PARAMETER G(GAS,H;0)  2.98150E+02  +F10598T#+RTLNP;     6000 N !
$   PARAMETER G(GAS,H2;0)  2.98150E+02  +F11004T#+RTLNP;     6000 N !





 TYPE_DEFINITION ' GES A_P_D BCC_A2 MAGNETIC  -1.0    4.00000E-01 !
 PHASE BCC_A2  %'  2 1   3 !
    CONSTITUENT BCC_A2  :MG,MN,NI,VA : VA :  !

   PARAMETER G(BCC_A2,MG:VA;0)  2.98150E+02  +GBCCMG#;   6.00000E+03   N 
  REF16 !
 
   PARAMETER G(BCC_A2,MN:VA;0)  2.98150E+02  +GBCCMN#;  2.00000E+03  N REF16 !
   PARAMETER TC(BCC_A2,MN:VA;0)  2.98150E+02  -580;   6.00000E+03   N REF16 !
   PARAMETER BMAGN(BCC_A2,MN:VA;0)  2.98150E+02  -.27;   6.00000E+03   N 
  REF16 !

   PARAMETER G(BCC_A2,NI:VA;0)  2.98150E+02  +GBCCNI#;   6.00000E+03   N 
  REF16 !
   PARAMETER TC(BCC_A2,NI:VA;0)  2.98150E+02  575;   6.00000E+03   N REF16 !
   PARAMETER BMAGN(BCC_A2,NI:VA;0)  2.98150E+02  .85;   6.00000E+03   N 
  REF16 !

   PARAMETER G(BCC_A2,VA:VA;0)  2.98150E+02  +30*T;   6.00000E+03   N REF65 !
   PARAMETER G(BCC_A2,MG,VA:VA;0)  2.98150E+02  50000;   6.00000E+03   N 
  REF0 !
   PARAMETER G(BCC_A2,MG,MN:VA;0)  2.98150E+02  85000;   6.00000E+03   N 
  REF90 !
   PARAMETER G(BCC_A2,MG,NI:VA;0)  2.98150E+02  +80*T;   6.00000E+03   N 
  REF46 !
   PARAMETER G(BCC_A2,MN,VA:VA;0)  2.98150E+02  150000;   6.00000E+03   N 
  REF0 !
   PARAMETER G(BCC_A2,MN,NI:VA;0)  2.98150E+02  -3508.42803-23.7885576*T;   
  6.00000E+03   N REF167 !
   PARAMETER G(BCC_A2,NI,VA:VA;0)  2.98150E+02  111172;   6.00000E+03   N 
  REF199 !


$ THIS PHASE HAS A DISORDERED CONTRIBUTION FROM BCC_A2                  
 TYPE_DEFINITION ( GES AMEND_PHASE_DESCRIPTION BCC_B2 DIS_PART BCC_A2,,,!
 PHASE BCC_B2  %(  3 .5   .5   3 !
    CONSTITUENT BCC_B2  :MG,MN%,NI,VA : MG,MN%,NI,VA : VA% :  !

       PARA G(BCC_B2,MG:MG:VA;0) 298.15 0; 6000 N!
       PARA G(BCC_B2,MN:MG:VA;0) 298.15 0; 6000 N!
   PARAMETER G(BCC_B2,NI:MG:VA;0)  2.98150E+02  -6727.7016;   6.00000E+03   
  N REF46 !
       PARA G(BCC_B2,VA:MG:VA;0) 298.15 0; 6000 N!
       PARA G(BCC_B2,MG:MN:VA;0) 298.15 0; 6000 N!
       PARA G(BCC_B2,MN:MN:VA;0) 298.15 0; 6000 N!
   PARAMETER G(BCC_B2,NI:MN:VA;0)  2.98150E+02  -24341.2+4.36*T;   
  6.00000E+03   N REF167 !
       PARA G(BCC_B2,VA:MN:VA;0) 298.15 0; 6000 N!
   PARAMETER G(BCC_B2,MG:NI:VA;0)  2.98150E+02  -6727.7016;   6.00000E+03   
  N REF46 !
   PARAMETER G(BCC_B2,MN:NI:VA;0)  2.98150E+02  -24341.2+4.36*T;   
  6.00000E+03   N REF167 !

       PARA G(BCC_B2,NI:NI:VA;0) 298.15 0; 6000 N!
       PARA G(BCC_B2,VA:NI:VA;0) 298.15 0; 6000 N!
       PARA G(BCC_B2,MG:VA:VA;0) 298.15 0; 6000 N!
       PARA G(BCC_B2,MN:VA:VA;0) 298.15 0; 6000 N!
       PARA G(BCC_B2,NI:VA:VA;0) 298.15 0; 6000 N!
       PARA G(BCC_B2,VA:VA:VA;0) 298.15 0; 6000 N!
   PARAMETER G(BCC_B2,NI,VA:NI:VA;0)  2.98150E+02  -131120-9.48*T;   
  6.00000E+03   N REF199 !
   PARAMETER G(BCC_B2,NI:NI,VA:VA;0)  2.98150E+02  -131120-9.48*T;   
  6.00000E+03   N REF199 !






 PHASE C36_LAVES  %  2 2   1 !
    CONSTITUENT C36_LAVES  :MG,MN,NI% : MG%,NI :  !

   PARAMETER G(C36_LAVES,MG:MG;0)  2.98150E+02  +15000+3*GHSERMG#;   
  6.00000E+03   N REF48 !



   PARAMETER G(C36_LAVES,NI:MG;0)  2.98150E+02  -74065.38+441.81039*T
  -77.3994*T*LN(T)-.00739488*T**2+334726.5*T**(-1);   6.00000E+03   N REF46 !

   PARAMETER G(C36_LAVES,MG:NI;0)  2.98150E+02  +104065.38-441.81039*T
  +77.3994*T*LN(T)+.00739488*T**2-334726.5*T**(-1)+2*GHSERMG#+GHSERNI#;   
  6.00000E+03   N REF46 !

   

   PARAMETER G(C36_LAVES,NI:NI;0)  2.98150E+02  +15000+3*GHSERNI#;   
  6.00000E+03   N REF113 !

   PARAMETER G(C36_LAVES,MG,MN:MG;0)  2.98150E+02  30000;   6.00000E+03   N 
  REF197 !
   PARAMETER G(C36_LAVES,MG,NI:MG;0)  2.98150E+02  -10040.39+59.89*T;   
  6.00000E+03   N REF113 !
   PARAMETER G(C36_LAVES,MG:MG,NI;0)  2.98150E+02  30300;   6.00000E+03   N 
  REF113 !
  
   PARAMETER G(C36_LAVES,NI:MG,NI;0)  2.98150E+02  30300;   6.00000E+03   N 
  REF113 !
   PARAMETER G(C36_LAVES,MG,NI:NI;0)  2.98150E+02  -10040.39+59.89*T;   
  6.00000E+03   N REF113 !
  
  
  PARAMETER G(C36_LAVES,MN:MG;0)  2.98150E+02  1.69360467E+05+2*GHSERMN#
  +GHSERMG#;   6.00000E+03   N !
  PARAMETER G(C36_LAVES,MN:NI;0)  2.98150E+02  
  3.11923790E+04+2*GHSERMN#+GHSERNI#; 6.00000E+03   N REF152 !
  PARAMETER G(C36_LAVES,MN,NI:MG;0)  298  
  -2.64958282E+05;   6000 N !
  


 TYPE_DEFINITION ) GES A_P_D CBCC_A12 MAGNETIC  -3.0    2.80000E-01 !
 PHASE CBCC_A12  %)  2 1   1 !
    CONSTITUENT CBCC_A12  :MG,MN,NI : VA :  !

   PARAMETER G(CBCC_A12,MG:VA;0)  2.98150E+02  +4602.4-3.011*T+GHSERMG#;   
  6.00000E+03   N REF16 !

   PARAMETER G(CBCC_A12,MN:VA;0)  2.98150E+02  +GHSERMN#;   6.00000E+03   N 
  REF16 !
   PARAMETER TC(CBCC_A12,MN:VA;0)  2.98150E+02  -285;   6.00000E+03   N 
  REF16 !
   PARAMETER BMAGN(CBCC_A12,MN:VA;0)  2.98150E+02  -.66;   6.00000E+03   N 
  REF16 !

   PARAMETER G(CBCC_A12,NI:VA;0)  2.98150E+02  +3556+GHSERNI#;  3.00000E+03  
  N REF16 !

   PARAMETER G(CBCC_A12,MG,MN:VA;0)  2.98150E+02  85000;   6.00000E+03   N 
  REF90 !
   PARAMETER G(CBCC_A12,MN,NI:VA;0)  2.98150E+02  40445.79;   6.00000E+03   
  N REF167 !
   PARAMETER G(CBCC_A12,MN,NI:VA;1)  2.98150E+02  -49308.67-21.05*T;   
  6.00000E+03   N REF167 !


 PHASE CUB_A13  %  2 1   1 !
    CONSTITUENT CUB_A13  :MG,MN,NI : VA :  !

   PARAMETER G(CUB_A13,MG:VA;0)  2.98150E+02  +5000-3*T+GHSERMG#;   
  6.00000E+03   N REF16 !

   PARAMETER G(CUB_A13,MN:VA;0)  2.98150E+02  +2314.88+5.936*T
  -1.4203*T*LN(T)+.00151409*T**2+442*T**(-1)+GHSERMN#;  1.51900E+03  Y
   +442.65-.9715*T+2.3107229E+30*T**(-9)+GHSERMN#;  6.00000E+03  N REF16 !

   PARAMETER G(CUB_A13,NI:VA;0)  2.98150E+02  +2092+GHSERNI#;  3.00000E+03  
  N REF16 !

   PARAMETER G(CUB_A13,MG,MN:VA;0)  2.98150E+02  85000;   6.00000E+03   N 
  REF90 !
   PARAMETER G(CUB_A13,MN,NI:VA;0)  2.98150E+02  -6586.18-20.22*T;   
  6.00000E+03   N REF167 !


 


 
 TYPE_DEFINITION * GES A_P_D FCC_A1 MAGNETIC  -3.0    2.80000E-01 !
 PHASE FCC_A1  %*  2 1   1 !
    CONSTITUENT FCC_A1  :MG,MN,NI : VA :  !

   PARAMETER G(FCC_A1,MG:VA;0)  2.98150E+02  +2600-.9*T+GHSERMG#+VFCCMG#*PP#;
     6.00000E+03   N REF16 !
   PARAMETER G(FCC_A1,MN:VA;0)  2.98150E+02  +GFCCMN#;   6.00000E+03   N 
  REF16 !
   PARAMETER TC(FCC_A1,MN:VA;0)  2.98150E+02  -1620;   6.00000E+03   N REF16 !
   PARAMETER BMAGN(FCC_A1,MN:VA;0)  2.98150E+02  -1.86;   6.00000E+03   N 
  REF16 !
  
   PARAMETER G(FCC_A1,NI:VA;0)  2.98150E+02  +GHSERNI#;   6.00000E+03   N 
  REF16 !
   PARAMETER TC(FCC_A1,NI:VA;0)  2.98150E+02  +633+4E-09*P;   6.00000E+03   
  N REF9 !
   PARAMETER BMAGN(FCC_A1,NI:VA;0)  2.98150E+02  .52;   6.00000E+03   N 
  REF16 !

   PARAMETER G(FCC_A1,MG,MN:VA;0)  2.98150E+02  85000;   6.00000E+03   N 
  REF90 !
   PARAMETER G(FCC_A1,MG,NI:VA;0)  2.98150E+02  +80*T;   6.00000E+03   N 
  REF46 !
   PARAMETER G(FCC_A1,MN,NI:VA;0)  2.98150E+02  +LMNNIF0#;   6.00000E+03   N 
  REF167 !
   PARAMETER G(FCC_A1,MN,NI:VA;1)  2.98150E+02  +LMNNIF1#;   6.00000E+03   N 
  REF167 !
   PARAMETER TC(FCC_A1,MN,NI:VA;0)  2.98150E+02  -3171.2;   6.00000E+03   N 
  REF91 !
   PARAMETER TC(FCC_A1,MN,NI:VA;1)  2.98150E+02  -4317.73;   6.00000E+03   N 
  REF91 !
   PARAMETER BMAGN(FCC_A1,MN,NI:VA;0)  2.98150E+02  -1.39;   6.00000E+03   N 
  REF91 !
   PARAMETER BMAGN(FCC_A1,MN,NI:VA;1)  2.98150E+02  3.9;   6.00000E+03   N 
  REF91 !



 PHASE FCC_L10  %  2 .5   .5 !
    CONSTITUENT FCC_L10  :MN,NI : MN,NI :  !

   PARAMETER G(FCC_L10,MN:MN;0)  2.98150E+02  +GFCCMN#+10;   6.00000E+03   N 
  REF167 !

   PARAMETER G(FCC_L10,NI:MN;0)  2.98150E+02  +.5*GFCCMN#+.5*GHSERNI#-10
  -.25*GMNNI3#+.625*GMN2NI2#-.25*GMN3NI#-.375*LRMNNI#+.25*LMNNIF0#;   
  6.00000E+03   N REF167 !

   PARAMETER G(FCC_L10,MN:NI;0)  2.98150E+02  +.5*GFCCMN#+.5*GHSERNI#-10
  -.25*GMNNI3#+.625*GMN2NI2#-.25*GMN3NI#-.375*LRMNNI#+.25*LMNNIF0#;   
  6.00000E+03   N REF167 !

   PARAMETER G(FCC_L10,NI:NI;0)  2.98150E+02  +GHSERNI#+10;   6.00000E+03   
  N REF167 !
  
   PARAMETER G(FCC_L10,MN,NI:MN;0)  2.98150E+02  +.3125*GMNNI3#
  -1.09375*GMN2NI2#+.8125*GMN3NI#+.15625*LRMNNI#+.25*LMNNIF0#+.375*LMNNIF1#; 
    6.00000E+03   N REF167 !
   PARAMETER G(FCC_L10,MN,NI:MN;1)  2.98150E+02  +.375*GMN2NI2#-.5*GMN3NI#
  +.375*LRMNNI#+.125*LMNNIF1#;   6.00000E+03   N REF167 !
   PARAMETER G(FCC_L10,MN,NI:MN;2)  2.98150E+02  -.0625*GMNNI3#
  +.09375*GMN2NI2#-.0625*GMN3NI#-.15625*LRMNNI#;   6.00000E+03   N REF167 !
   PARAMETER G(FCC_L10,MN,NI:MN,NI;1)  2.98150E+02  -2.5*GMNNI3#
  +3.75*GMN2NI2#-2.5*GMN3NI#+1.75*LRMNNI#;   6.00000E+03   N REF167 !
   PARAMETER G(FCC_L10,MN:MN,NI;0)  2.98150E+02  +.3125*GMNNI3#
  -1.09375*GMN2NI2#+.8125*GMN3NI#+.15625*LRMNNI#+.25*LMNNIF0#+.375*LMNNIF1#; 
    6.00000E+03   N REF167 !
   PARAMETER G(FCC_L10,MN:MN,NI;1)  2.98150E+02  +.375*GMN2NI2#-.5*GMN3NI#
  +.375*LRMNNI#+.125*LMNNIF1#;   6.00000E+03   N REF167 !
   PARAMETER G(FCC_L10,MN:MN,NI;2)  2.98150E+02  -.0625*GMNNI3#
  +.09375*GMN2NI2#-.0625*GMN3NI#-.15625*LRMNNI#;   6.00000E+03   N REF167 !
   PARAMETER G(FCC_L10,NI:MN,NI;0)  2.98150E+02  +.8125*GMNNI3#
  -1.09375*GMN2NI2#+.3125*GMN3NI#+.15625*LRMNNI#+.25*LMNNIF0#-.375*LMNNIF1#; 
    6.00000E+03   N REF167 !
   PARAMETER G(FCC_L10,NI:MN,NI;1)  2.98150E+02  +.5*GMNNI3#-.375*GMN2NI2#
  -.375*LRMNNI#+.125*LMNNIF1#;   6.00000E+03   N REF167 !
   PARAMETER G(FCC_L10,NI:MN,NI;2)  2.98150E+02  -.0625*GMNNI3#
  +.09375*GMN2NI2#-.0625*GMN3NI#-.15625*LRMNNI#;   6.00000E+03   N REF167 !
   PARAMETER G(FCC_L10,MN,NI:NI;0)  2.98150E+02  +.8125*GMNNI3#
  -1.09375*GMN2NI2#+.3125*GMN3NI#+.15625*LRMNNI#+.25*LMNNIF0#-.375*LMNNIF1#; 
    6.00000E+03   N REF167 !
   PARAMETER G(FCC_L10,MN,NI:NI;1)  2.98150E+02  +.5*GMNNI3#-.375*GMN2NI2#
  -.375*LRMNNI#+.125*LMNNIF1#;   6.00000E+03   N REF167 !
   PARAMETER G(FCC_L10,MN,NI:NI;2)  2.98150E+02  -.0625*GMNNI3#
  +.09375*GMN2NI2#-.0625*GMN3NI#-.15625*LRMNNI#;   6.00000E+03   N REF167 !


$ THIS PHASE HAS A DISORDERED CONTRIBUTION FROM FCC_A1                  
 TYPE_DEFINITION + GES AMEND_PHASE_DESCRIPTION FCC_L12 DIS_PART FCC_A1,,,!
 PHASE FCC_L12  %+  3 .75   .25   1 !
    CONSTITUENT FCC_L12  :MG,MN%,NI : MG,MN%,NI : VA% :  !

       PARA G(FCC_L12,MG:MG:VA;0) 298.15 0; 6000 N!
       PARA G(FCC_L12,MN:MG:VA;0) 298.15 0; 6000 N!
       PARA G(FCC_L12,NI:MG:VA;0) 298.15 0; 6000 N!
       PARA G(FCC_L12,MG:MN:VA;0) 298.15 0; 6000 N!
       PARA G(FCC_L12,MN:MN:VA;0) 298.15 0; 6000 N!
   PARAMETER G(FCC_L12,NI:MN:VA;0)  2.98150E+02  +GMNNI3#;   6.00000E+03   N 
  REF167 !

       PARA G(FCC_L12,MG:NI:VA;0) 298.15 0; 6000 N!
   PARAMETER G(FCC_L12,MN:NI:VA;0)  2.98150E+02  +GMN3NI#;   6.00000E+03   N 
  REF167 !
 
       PARA G(FCC_L12,NI:NI:VA;0) 298.15 0; 6000 N!
   PARAMETER G(FCC_L12,MN,NI:MN:VA;0)  2.98150E+02  -1.5*GMNNI3#
  +1.5*GMN2NI2#+1.5*GMN3NI#+.75*LRMNNI#;   6.00000E+03   N REF167 !
   PARAMETER G(FCC_L12,MN,NI:MN:VA;1)  2.98150E+02  +.5*GMNNI3#-1.5*GMN2NI2#
  +1.5*GMN3NI#;   6.00000E+03   N REF167 !
   PARAMETER G(FCC_L12,MN,NI:MN:VA;2)  2.98150E+02  -.75*LRMNNI#;   
  6.00000E+03   N REF167 !
   PARAMETER G(FCC_L12,MN,NI:MN,NI:VA;0)  2.98150E+02  +3*LRMNNI#;   
  6.00000E+03   N REF167 !
   PARAMETER G(FCC_L12,MN,NI:NI:VA;0)  2.98150E+02  +1.5*GMNNI3#
  +1.5*GMN2NI2#-1.5*GMN3NI#+.75*LRMNNI#;   6.00000E+03   N REF167 !
   PARAMETER G(FCC_L12,MN,NI:NI:VA;1)  2.98150E+02  -1.5*GMNNI3#
  +1.5*GMN2NI2#-.5*GMN3NI#;   6.00000E+03   N REF167 !
   PARAMETER G(FCC_L12,MN,NI:NI:VA;2)  2.98150E+02  -.75*LRMNNI#;   
  6.00000E+03   N REF167 !



 


 PHASE GAMMA_D83  %  3 4   1   8 !
    CONSTITUENT GAMMA_D83  :NI : NI : MN,NI :  !

   PARAMETER G(GAMMA_D83,NI:NI:MN;0)  2.98150E+02  -77000+8*GHSERMN#
  +5*GHSERNI#;   6.00000E+03   N REF167 !

   PARAMETER G(GAMMA_D83,NI:NI:NI;0)  2.98150E+02  +65000+4*GHSERNI#
  +GHSERNI#+8*GHSERNI#;   6.00000E+03   N REF197 !



 





 TYPE_DEFINITION - GES A_P_D HCP_A3 MAGNETIC  -3.0    2.80000E-01 !
 PHASE HCP_A3  %-  2 1   .5 !
 CONSTITUENT HCP_A3  :MG,MN,NI : VA :  !
 PARAMETER G(HCP_A3,MG:VA;0)  2.98150E+02  +GHSERMG#;   6.00000E+03   N REF16 !
 PARAMETER G(HCP_A3,MN:VA;0)  2.98150E+02  -4439.3+133.007*T
  -24.5177*T*LN(T)-.006*T**2+69600*T**(-1);  1.51900E+03  Y
   -27070.1+310.7894*T-48*T*LN(T)+3.86196E+30*T**(-9);  6.00000E+03  N REF16 !
 PARAMETER TC(HCP_A3,MN:VA;0)  2.98150E+02  -1620;   6.00000E+03   N REF16 !
 PARAMETER BMAGN(HCP_A3,MN:VA;0)  2.98150E+02  -1.86;   6000   N REF16 !
 PARAMETER G(HCP_A3,NI:VA;0)  2.98150E+02  +1046+1.2552*T+GHSERNI#;  
 6.00000E+03   N REF16 !
 PARAMETER TC(HCP_A3,NI:VA;0)  2.98150E+02  633;   6.00000E+03   N REF16 !
 PARAMETER BMAGN(HCP_A3,NI:VA;0)  2.98150E+02  .52;   6.00000E+03   N 
  REF16 !
 PARAMETER G(HCP_A3,MG,MN:VA;0)  2.98150E+02  +37148-1.8103*T;   
  6.00000E+03   N REF90 !
 PARAMETER G(HCP_A3,MG,MN,NI:VA;0)  2.98150E+02  -19726.66;   6.00000E+03  
   N REF152 !
 PARAMETER G(HCP_A3,MG,NI:VA;0)  2.98150E+02  +80*T;   6000  N REF46 !
 PARAMETER G(HCP_A3,MN,NI:VA;0)  2.98150E+02  +LMNNIF0#; 6000   N REF197 !
 PARAMETER G(HCP_A3,MN,NI:VA;1)  2.98150E+02  +LMNNIF1#; 6000   N REF197 !
 PARAMETER TC(HCP_A3,MN,NI:VA;0)  2.98150E+02  -3171.2;   6000 N REF197 !
 PARAMETER TC(HCP_A3,MN,NI:VA;1)  2.98150E+02  -4317.73;   6000  N REF197 !
 PARAMETER BMAGN(HCP_A3,MN,NI:VA;0)  2.98150E+02  -1.39;   6000   N REF197 !
 PARAMETER BMAGN(HCP_A3,MN,NI:VA;1)  2.98150E+02  3.9;   6000  N REF197 !






 PHASE LIQUID  %  1  1.0  !
 CONSTITUENT LIQUID  :MG,MN,NI :  !
 PARAMETER G(LIQUID,MG;0)  2.98150E+02  +GLIQMG#;   6.00000E+03   N REF16 !
 PARAMETER G(LIQUID,MN;0)  2.98150E+02  +GLIQMN#;   6.00000E+03   N REF16 !
 PARAMETER G(LIQUID,NI;0)  2.98150E+02  +GLIQNI#;   6.00000E+03   N REF16 !
 PARAMETER G(LIQUID,MG,MN;0)  2.98150E+02  +25922.4+9.0357*T;   
  6.00000E+03   N REF90 !
 PARAMETER G(LIQUID,MG,MN;1)  2.98150E+02  -3470.8;   6.00000E+03   N 
  REF90 !
 PARAMETER G(LIQUID,MG,NI;0)  2.98150E+02  -50910+25.79995*T;   
  6.00000E+03   N REF46 !
 PARAMETER G(LIQUID,MG,NI;1)  2.98150E+02  -14989.95+13.24788*T;   
  6.00000E+03   N REF46 !
 PARAMETER G(LIQUID,MN,NI;0)  2.98150E+02  -44423.12-2.35*T;   6.00000E+03 
    N REF167 !
 PARAMETER G(LIQUID,MN,NI;1)  2.98150E+02  +11941.36-6.85*T;   6.00000E+03 
    N REF167 !
 PARAMETER G(LIQUID,MG,MN,NI;0)  2.98150E+02 -2.12257250E+04;   
  6.00000E+03   N REF46 !

 PHASE MG2NI  %  2 2   1 !
 CONSTITUENT MG2NI  :MG : NI% :  !
 PARAMETER G(MG2NI,MG:NI;0)  2.98150E+02  -60961.2+415.47933*T
  -74.8062*T*LN(T)-.0046155*T**2+401415*T**(-1);   6.00000E+03   N REF46 !





 PHASE MG3MNNI2  %  3 3   1   2 !
 CONSTITUENT MG3MNNI2  :MG : MN : NI :  !
 PARAMETER G(MG3MNNI2,MG:MN:NI;0)  298  -9.59017116E+04+2.73257680E+01*T
   +3*GHSERMG#+1*GHSERMN#+2*GHSERNI#;   6.00000E+03   N REF152 !


 PHASE MNNI2  %  2 1   2 !
 CONSTITUENT MNNI2  :MN,NI : NI :  !
 PARAMETER G(MNNI2,MN:NI;0)  2.98150E+02  +GHSERMN#+2*GHSERNI#-27084.651
  -5.98849279*T;   6.00000E+03   N REF167 !
 PARAMETER G(MNNI2,NI:NI;0)  2.98150E+02  +3*GHSERNI#+15000; 6000 N REF167 !
 PARAMETER G(MNNI2,MN,NI:NI;0)  2.98150E+02  -19871.36;  6000   N REF167 !




 

 LIST_OF_REFERENCES
 NUMBER  SOURCE
   REF16  'A. Dinsdale, Calphad,15 317-425 (1991)'
   REF219 'L. Kjellqvist, Thermo-Calc Software AB, Sweden 2012; Molar volumes'
   REF221 'J. Brillo and I. Egry, Int. J. Thermophysics, 24, pp. 1155-1170'
   REF222 'X.-G. Lu, Thermo-Calc Software AB, Sweden,2006; Molar volumes'
   REF9   'Alan Dinsdale, SGTE Data for Pure Elements, NPL Report DMA(A)195 
         September 1989'
   REF213 'X.-G. Lu, M. Selleby and B. Sundman, CALPHAD, Vol. 29, 2005, pp. 
         68-89; Molar volumes'
   REF214 'Volume data from TCFE4, 2006'
   REF65  'N. Dupin, Calphad, 25(2)279-298(2001),Al-Cr-Ni'
   REF199 'Nathalie Dupin, in TCNI6.0, Refinement of Al-Ni'
   REF220 'L. Kjellqvist, Thermo-Calc Software AB, Sweden 2012; Molar 
         volumes in HCP_ZN = HCP_A3'
   REF48  'I. Ansara (Editor), COST 507, (1998)'
   REF217 'L. Kjellqvist, Thermo-Calc Software AB, Stockholm, 2010; 
         Unassessed parameter, linear combination of unary volume data'
   REF113 'W. Xiong, CALPHAD,32(4), 675-685 (2008),Cu-Mg-Ni'
   REF120 'SGTE substance database, (2008)'
   REF161 'C.Y.He, to be submitted ,2010,Mn-Ge'
   REF47  'P. Liang, Z. Metallkd.89, 536-540(1998),Al-Mg'
   REF97  'Y. Du, Inter.J.Mater.Res.98(9) 855-871 (2007),Al-Mg-Mn'
   REF90  'J.Groebner,J.Phase Equilib.,26(3),234-239(2005),Mg-Mn'
   REF197 'Hai-Lin Chen, in TCAL2.0, Extrapolations, assumptions 
          adjustment'
   REF46  'M.H.G. Jacobs, CALPHAD,22(4)513-525 (1998),Mg-Ni'
   REF167 'Shuhong Liu, unpublished work (2010),Mn-Ni,Al-Mn-Ni,Mn-Ni-Zn, Al
         -Cu-Fe-Mg-Mn-Si'
   REF91  'C.P. Guo,Intermetallics,13(5),525-534,(2005),Mn-Ni'
   REF168 'W. Xiong, unpublished (2010),Ni-Zn'
   REF137 'Y.Q. Liu, to be submitted,NI-GE,Cr-Ge'
   REF83  'H.S. Liu,CALPHAD, 28(2004) 363-370,NI-SN'
   REF115 'J. De Keyzer, Fe-Ni-Ti, Calphad 2008'
   REF230 'N. Dupin, Unpublished work on molar volumes.'
   REF55  'N. Dupin, August 1999, unpublished revision; Al-Ni-Ti'
   REF111 'Z.J. Zhu,unpublished (2008),Cu-Mg-Mn'
   REF185 'P.S. Wang, Y. Du, S.H. Liu, Calphad, 35 (2011) 523-532; Li-Mg, Al
         -Li-Mg'
   REF109 'W. Xiong, J. Mater.Res.,99(6), 598-612(2008),Al-Ni-Si'
   REF152 'P.S. Wang,Int.J.Mater.Res. (2010),Fe-Mg-Ni,Mg-Mn-Ni'
   REF191 'B. Hu, unpublished (2012), reassessment of Mn-Ni-Si'
  ! 
 
