$ Database file written 2012- 8- 2
$ From database: PURE4                   
 ELEMENT /-   ELECTRON_GAS              0.0000E+00  0.0000E+00  0.0000E+00!
 ELEMENT VA   VACUUM                    0.0000E+00  0.0000E+00  0.0000E+00!
 ELEMENT CE   FCC_A1                    1.4011E+02  0.0000E+00  0.0000E+00!
 ELEMENT CU   FCC_A1                    6.3546E+01  5.0041E+03  3.3150E+01!
 ELEMENT SN   BCT_A5                    1.1871E+02   6.3220E+03  5.1195E+01!

 FUNCTION ZERO     298.15 0.0; 6000.00  N !
 FUNCTION UN_ASS   298.15 0.0 ;  3.00000E+02  N !

 FUNCTION GHSERCE    2.98150E+02  -7160.519
    +84.23022*T-22.3664*T*LN(T)
     -.0067103*T**2-3.20773E-07*T**3
    -18117*T**(-1);  1.00000E+03  Y
      -79678.506+659.4604*T
    -101.32248*T*LN(T)+.026046487*T**2
     -1.930297E-06*T**3+11531707*T**(-1); 
         2.00000E+03  Y
      -14198.639+190.370192*T-37.6978*T*LN(T); 
     4.00000E+03  N !
 FUNCTION GHSERCU 298.15 -7770.458+130.485235*T-24.112392*T*LN(T)                        
       -2.65684E-3*T**2+0.129223E-6*T**3+52478*T**(-1);                       
 1357.77 Y -13542.026+183.803828*T-31.38*T*LN(T)                              
        +364.167E27*T**(-9);                                                   
  3200.00 N PURE4!  

 FUNCTION GHSERSN 100.00 -7958.517+122.765451*T-25.858*T*LN(T)                           
        +0.51185E-3*T**2-3.192767E-6*T**3+18440*T**(-1);                       
   250.00 Y -5855.135+65.443315*T-15.961*T*LN(T)                               
        -18.8702E-3*T**2+3.121167E-6*T**3-61960*T**(-1);                       
   505.08 Y +2524.724+4.005269*T-8.2590486*T*LN(T)                             
        -16.814429E-3*T**2+2.623131E-6*T**3-1081244*T**(-1)                    
        -123.07E23*T**(-9);                                                    
   800.00 Y -8256.959+138.99688*T-28.4512*T*LN(T)                              
        -123.07E23*T**(-9); 3000.00 N PURE4! 

 FUNCTION GBCTSN 100.00 +GHSERSN#; 3000 N PURE4!

 FUNCTION GLIQSN 100.00 -855.425+108.677684*T-25.858*T*LN(T)
         +0.51185E-3*T**2-3.192767E-6*T**3+18440*T**(-1)
         +147.031E-20*T**7;  
    250.00 Y +1247.957+51.355548*T-15.961*T*LN(T)
         -18.8702E-3*T**2+3.121167E-6*T**3-61960*T**(-1)
         +147.031E-20*T**7;  
    505.08 Y +9496.31-9.809114*T-8.2590486*T*LN(T)
         -16.814429E-3*T**2+2.623131E-6*T**3-1081244*T**(-1);  
    800.00 Y -1285.372+125.182498*T-28.4512*T*LN(T);  
   3000.00 N PURE4!

 FUNCTION GFCCSN 298.15 -345.135+56.983315*T-15.961*T*LN(T)
         -18.8702E-3*T**2+3.121167E-6*T**3-61960*T**(-1);  
    505.08 Y +8034.724-4.454731*T-8.2590486*T*LN(T)
         -16.814429E-3*T**2+2.623131E-6*T**3-1081244*T**(-1)
         -123.07E23*T**(-9);  
    800.00 Y -2746.959+130.53688*T-28.4512*T*LN(T)
         -123.07E23*T**(-9);  
   3000.00 N PURE4!

 FUNCTION GBCCSN 100.00 -3558.517+116.765451*T-25.858*T*LN(T)
         +0.51185E-3*T**2-3.192767E-6*T**3+18440*T**(-1);  
    250.00 Y -1455.135+59.443315*T-15.961*T*LN(T)
         -18.8702E-3*T**2+3.121167E-6*T**3-61960*T**(-1);  
    505.08 Y +6924.724-1.994731*T-8.2590486*T*LN(T)
         -16.814429E-3*T**2+2.623131E-6*T**3-1081244*T**(-1)
         -123.07E23*T**(-9);  
    800.00 Y -3856.959+132.99688*T-28.4512*T*LN(T)
         -123.07E23*T**(-9);  
   3000.00 N PURE4!

 FUNCTION GFCCCU   298.15  -7770.458+130.485235*T
         -24.112392*T*LN(T)-2.65684E-3*T**2+0.129223E-6*T**3
         +52478*T**(-1);  
   1357.77 Y  -13542.026+183.803828*T-31.38*T*LN(T)
         +364.167E27*T**(-9);  
   3200.00 N !

 FUNCTION GBCCCU   298.15  -3753.458+129.230235*T
         -24.112392*T*LN(T)-2.65684E-3*T**2+0.129223E-6*T**3
         +52478*T**(-1);  
   1357.77 Y  -9525.026+182.548828*T-31.38*T*LN(T)
         +364.167E27*T**(-9);  
   3200.00 N !
 
 FUNCTION GHCPCU   298.15  -7170.458+130.685235*T
         -24.112392*T*LN(T)-2.65684E-3*T**2+0.129223E-6*T**3
         +52478*T**(-1);  
   1357.77 Y  -12942.026+184.003828*T-31.38*T*LN(T)
         +364.167E27*T**(-9);  
   3200.00 N !
  

 FUNCTION GLIQCU  298.15  5194.277+120.973331*T
         -24.112392*T*LN(T)-2.65684E-3*T**2+0.129223E-6*T**3
         +52478*T**(-1)-584.89E-23*T**7;  
   1357.77 Y  -46.545+173.881484*T-31.38*T*LN(T);  
   3200.00 N !

 FUNCTION GFCCCE   298.15  -7160.519+84.23022*T
   -22.3664*T*LN(T)-6.7103E-3*T**2
   -0.320773E-6*T**3-18117*T**(-1);  
   1000.00 Y  -79678.506+659.4604*T
   -101.3224803*T*LN(T)+26.046487E-3*T**2
   -1.930297E-6*T**3+11531707*T**(-1);  
   2000.00 Y  -14198.639+190.370192*T
   -37.6978*T*LN(T);  4000.00 N !

 FUNCTION GBCCCE   298.15  -1354.69-5.21501*T
   -7.7305867*T*LN(T)-29.098402E-3*T**2
   +4.784299E-6*T**3-196303*T**(-1);  
   1000.00 Y  -12101.106+187.449688*T-37.6142*T*LN(T);  
   1072.00 Y  -11950.375+186.333811*T-37.4627992*T*LN(T)
   -0.057145E-3*T**2+0.002348E-6*T**3-25897*T**(-1);  
   4000.00 N !

 FUNCTION GLIQCE   298.15  4117.865-11.423898*T
  -7.5383948*T*LN(T)-29.36407E-3*T**2+4.827734E-6*T**3
  -198834*T**(-1);  
   1000.00 Y  -6730.605+183.023193*T-37.6978*T*LN(T);  
   4000.00 N !

 
 FUNCTION GHCPCE  298.15  -6860.519+84.23022*T
  -22.3664*T*LN(T)-6.7103E-3*T**2-0.320773E-6*T**3
   -18117*T**(-1);  
   1000.00 Y  -79378.506+659.4604*T-101.3224803*T*LN(T)
   +26.046487E-3*T**2-1.930297E-6*T**3+11531707*T**(-1);    
   2000.00 Y  -13898.639+190.370192*T-37.6978*T*LN(T);  
   4000.00 N !

 
 TYPE_DEFINITION % SEQ *!
 DEFINE_SYSTEM_DEFAULT ELEMENT 3 !
 DEFAULT_COMMAND DEF_SYS_ELEMENT VA /- !

 PHASE LIQUID  %  1  1.0  !
 CONSTITUENT LIQUID  :CE,CU,SN :  !
 PARAMETER G(LIQUID,CE;0)  2.98150E+02 
   +4117.865-11.423898*T
  -7.5383948*T*LN(T)-.02936407*T**2
   +4.827734E-06*T**3-198834*T**(-1);  
  1.00000E+03  Y
   -6730.605+183.023193*T
   -37.6978*T*LN(T);  4.00000E+03  N  !
 PARAMETER G(LIQUID,CU;0)  2.98150E+02  
   +5194.277+120.973331*T
  -24.112392*T*LN(T)-.00265684*T**2
  +1.29223E-07*T**3+52478*T**(-1)
  -5.8489E-21*T**7;  1.35777E+03  Y
   -46.545+173.881484*T-31.38*T*LN(T); 
  3.20000E+03  N  !
 PARAMETER G(LIQUID,SN;0) 298.15 +GLIQSN;  4000.00 N PURE4 !
 PARAMETER G(LIQUID,CE,CU;0) 298.15 -44488-0.398*T; 3200 N !
 PARAMETER G(LIQUID,CE,CU;1) 298.15 +34088-6.247*T; 3200 N !
 PARAMETER G(LIQUID,CE,CU;2) 298.15 -20951+10.387*T; 3200 N !
 PARAMETER G(LIQUID,CU,SN;0) 298.15 -9002.8-5.8381*T;  4000 N !
 PARAMETER G(LIQUID,CU,SN;1) 298.15 -20100.4+3.6366*T;  4000 N !
 PARAMETER G(LIQUID,CU,SN;2) 298.15 -10528.4; 4000 N !
 PARAMETER G(LIQUID,SN,CE;0) 298.15  -2.3765933E5+17.3953*T+2.50755878*T*LN(T);  
 4000  N !
 PARAMETER G(LIQUID,SN,CE;1) 298.15  -3.316785E3+15.5301*T;
 4000    N !
 PARAMETER G(LIQUID,SN,CE;2) 298.15  4.41125445E4;  
 4000    N !
 PARAMETER G(LIQUID,SN,CE,CU;0) 298.15 -1.4405e5;  
 4000    N !



 TYPE_DEFINITION ( GES A_P_D FCC_A1 MAGNETIC  -3.0     2.80000E-01 !
 PHASE FCC_A1 %( 2 1 1 ! 
 CONSTITUENT FCC_A1  :CE,CU,SN :VA :  !

 PARAMETER G(FCC_A1,CE:VA;0)  2.98150E+02  +GHSERCE#; 
 4.00000E+03  N REF1 !
 PARAMETER G(FCC_A1,CU:VA;0)  2.98150E+02  +GHSERCU#; 
   3.20000E+03  N REF1 !
 PARAMETER G(FCC_A1,SN:VA;0) 298.15 +5510-8.46*T+GHSERSN#; 4000 N !
 PARAMETER G(FCC_A1,CU,CE:VA;0) 298.15 +100000; 3200 N !
 PARAMETER G(FCC_A1,SN,CU:VA;0) 298.15 -7072.95-1.4837*T; 4000 N !
 PARAMETER G(FCC_A1,SN,CU:VA;1) 298.15 -16331.3+6.9539*T; 4000 N !
 PARAMETER G(FCC_A1,CE,SN:VA;0)  298.15 +4.41125E4;  4.00000E+03  N !

 TYPE_DEFINITION & GES A_P_D BCC_A2 MAGNETIC  -1.0    4.00000E-01 !
 PHASE BCC_A2  %&  2 1   3 !
    CONSTITUENT BCC_A2  :CE,CU,SN :VA :  !

 PARAMETER G(BCC_A2,CE:VA;0)  2.98150E+02 
  -1354.69-5.21501*T
  -7.7305867*T*LN(T)-.029098402*T**2
   +4.784299E-06*T**3-196303*T**(-1);  
    1.00000E+03  Y
   -12101.106+187.449688*T-37.6142*T*LN(T);
    1.07200E+03  Y
   -11950.375+186.333811*T-37.4627992*T*LN(T)
   -5.7145E-05*T**2+2.348E-09*T**3
  -25897*T**(-1);  4.00000E+03  N  !
   PARAMETER G(BCC_A2,CU:VA;0)  2.98150E+02  
  -3753.458+129.230235*T
  -24.112392*T*LN(T)-.00265684*T**2
   +1.29223E-07*T**3+52478*T**(-1);  
  1.35777E+03  Y
   -9525.026+182.548828*T-31.38*T*LN(T)+3.64167E+29*T**(-9);
    3.20000E+03  N  !
 PARAMETER G(BCC_A2,SN:VA;0) 298.15 +GBCTSN+4400-6*T; 4000 N !
 PARAMETER G(BCC_A2,CU,CE:VA;0) 298.15 +100000; 3200 N !
 PARAMETER G(BCC_A2,CU,SN:VA;0) 298.15 -44821.6+51.2164*T; 4000 N !
 PARAMETER G(BCC_A2,CU,SN:VA;1) 298.15 -6876.5-56.4271*T; 4000 N !
 PARAMETER G(BCC_A2,SN,CE:VA;0)  298.15    -1.523E5+5.002*T;  4000    N !

 PHASE BCT_A5  %  1 1.0 !
 CONSTITUENT BCT_A5   :SN%,CU,CE :  !
 PARAMETER G(BCT_A5,SN;0)    298.15 +GHSERSN#;   3000.00 N !
 PARAMETER G(BCT_A5,CU;0)    298.15 +GHSERCU#+4184;   4000 N ! 
 PARAMETER G(BCT_A5,CE;0)    298.15 +GHSERCE#+5000;   4000 N !
 PARAMETER G(BCT_A5,CE,SN;0)  298.15   +1E5;    4.00000E+03  N !
 PARAMETER G(BCT_A5,CU,SN;0)  298.15   +1E5;    4.00000E+03  N !
 PARAMETER G(BCT_A5,CE,CU;0)  298.15   +1E5;    4.00000E+03  N !

 PHASE CU6CE % 2 0.857 0.143 !
 CONSTITUENT CU6CE :CU :CE : !
 PARAMETER G(CU6CE,CU:CE;0) 298.15 
 0.857*GHSERCU#+0.143*GHSERCE#-8964-2.05*T; 4000 N !

 PHASE CU5CE % 2 0.833 0.167 !
 CONSTITUENT CU5CE :CU :CE : !
 PARAMETER G(CU5CE,CU:CE;0) 298.15 
 0.833*GHSERCU#+0.167*GHSERCE#-10290-1.5*T; 4000 N !

 PHASE CU4CE % 2 0.8 0.2 !
 CONSTITUENT CU4CE :CU :CE : !
 PARAMETER G(CU4CE,CU:CE;0) 298.15 
 0.8*GHSERCU#+0.2*GHSERCE#-11640-1.174*T; 4000 N !

 PHASE CU2CE % 2 0.667 0.333 !
 CONSTITUENT CU2CE :CU :CE : !
 PARAMETER G(CU2CE,CU:CE;0) 298.15 
 0.667*GHSERCU#+0.333*GHSERCE#-11540-4.641*T; 4000 N !
 
 PHASE CUCE % 2 0.5 0.5!
 CONSTITUENT CUCE :CU :CE : !
 PARAMETER G(CUCE,CU:CE;0) 298.15
 0.5*GHSERCU#+0.5*GHSERCE#-9420-3.5*T; 4000 N !

 PHASE CU10SN3 % 2 0.769 0.231 !
 CONSTITUENT CU10SN3 : CU: SN: !
 PARAMETER G(CU10SN3,CU:SN;0) 298.15 -6655-1.4483*T
 +0.769*GHSERCU#+0.231*GHSERSN#; 4000 N !
 
 PHASE CU3SN % 2 0.75 0.25 !
 CONSTITUENT CU3SN : CU: SN: !
 PARAMETER G(CU3SN,CU:SN;0) 298.15 -8194.2-0.2043*T
 +0.75*GHSERCU#+0.25*GHSERSN#; 4000 N !

 PHASE CU41SN11 % 2 0.788 0.212 !
 CONSTITUENT CU41SN11 : CU: SN: !
 PARAMETER G(CU41SN11,CU:SN;0) 298.15 -6323.5-1.2808*T
 +0.788*GHSERCU#+0.212*GHSERSN#; 4000 N !

 PHASE HCU6SN5 % 2 0.545 0.455 !
 CONSTITUENT HCU6SN5 : CU: SN: !
 PARAMETER G(HCU6SN5,CU:SN;0) 298.15 -7085.92+0.15558*T
 +0.545*GHSERCU#+0.455*GHSERSN#; 4000 N !

 PHASE LCU6SN5 % 2 0.545 0.455 !
 CONSTITUENT LCU6SN5 : CU: SN: !
 PARAMETER G(LCU6SN5,CU:SN;0) 298.15 -7346.12+0.72038*T
 +0.545*GHSERCU#+0.455*GHSERSN#; 4000 N !

 PHASE DO3 % 2 0.75 0.25 !
 CONSTITUENT DO3 : CU,SN: CU,SN: !
 PARAMETER G(DO3,CU:CU;0) 298.15 +4017-1.255*T+GHSERCU#; 4000 N !
 PARAMETER G(DO3,SN:CU;0) 298.15 +120979.1
 +0.25*GHSERCU#+0.75*GHSERSN#; 4000 N !
 PARAMETER G(DO3,CU:SN;0) 298.15 -5917.1-2.4384*T
 +0.75*GHSERCU#+0.25*GHSERSN#; 4000 N !
 PARAMETER G(DO3,SN:SN;0) 298.15 +4400-6*T+GHSERSN#; 4000 N !
 PARAMETER G(DO3,CU,SN:CU;0) 298.15 -1857.8-2.5311*T; 4000 N !
 PARAMETER G(DO3,CU,SN:CU;1) 298.15 -2.9894*T; 4000 N !
 PARAMETER G(DO3,CU:CU,SN;0) 298.15 -1857.8-2.5311*T; 4000 N !
 PARAMETER G(DO3,CU:CU,SN;1) 298.15 -2.9894*T; 4000 N !
 PARAMETER G(DO3,CU,SN:SN;0) 298.15 +45850-42.2191*T; 4000 N !
 PARAMETER G(DO3,SN:CU,SN;0) 298.15 +45850-42.2191*T; 4000 N !

 PHASE CE3SN % 2 0.75 0.25 !
 CONSTITUENT  CE3SN  :CE :SN : !
 PARAMETER G(CE3SN,CE:SN;0)  298.15   
  -4.999E4+5.35218*T+0.75*GHSERCE#+0.25*GHSERSN#;
  4000  N !
  
 PHASE CE5SN3 % 2 0.625 0.375 !
 CONSTITUENT  CE5SN3  :CE :SN : !
 PARAMETER G(CE5SN3,CE:SN;0) 298.15  
 -7.40996E4+9.055*T+0.625*GHSERCE#+0.375*GHSERSN#; 4000  N !


 PHASE CE5SN4 % 2 0.556 0.444 ! 
 CONSTITUENT  CE5SN4  :CE :SN : !
 PARAMETER G(CE5SN4,CE:SN;0) 298.15   
  -8.155E4+10.104*T+0.556*GHSERCE#+0.444*GHSERSN#;
  4000  N !

 PHASE CE11SN10 % 3  0.429 0.429  0.142!
 CONSTITUENT  CE11SN10  :CE :SN :CE%,SN,CU: !
 PARAMETER G(CE11SN10,CE:SN:CE;0) 298.15   
 -8.00225E4+10.45*T+0.571*GHSERCE#+0.429*GHSERSN#;
  4000   N !
 PARAMETER G(CE11SN10,CE:SN:SN;0) 298.15   
  -7.9310068E4+12.2*T+0.429*GHSERCE#+0.571*GHSERSN#;
  4000  N !
 PARAMETER G(CE11SN10,CE:SN:CU;0) 298.15
 -66050+8.95*T+0.429*GHSERCE#+0.429*GHSERSN#+0.142*GHSERCU#;
 4000 N !
 PARAMETER G(CE11SN10,CE:SN:CE,SN;0) 298.15   
 -8.5278E3; 4000 N !
 PARAMETER G(CE11SN10,CE:SN:CE,SN;1) 298.15   
  -1.9605E3; 4000 N !
 PARAMETER G(CE11SN10,CE:SN:CE,CU;0) 298.15
 -1.0901E4; 4000 N !
 PARAMETER G(CE11SN10,CE:SN:SN,CU;0) 298.15
 -1.05E4; 4000 N !

 
 PHASE CE3SN5 % 2 0.375 0.625 !
 CONSTITUENT CE3SN5 :CE :SN : !
 PARAMETER G(CE3SN5,CE:SN;0) 298.15 
 -7.8921E4+12.18*T+0.375*GHSERCE#+0.625*GHSERSN#;
  4000  N !

 PHASE CE3SN7 % 2 0.3 0.7 !
 CONSTITUENT CE3SN7 :CE :SN : !
 PARAMETER G(CE3SN7,CE:SN;0) 298.15  
  -7.3036545E4+11.95*T+0.3*GHSERCE#+0.7*GHSERSN#;
  4000 N !
 
 PHASE CE2SN5 % 2 0.286 0.714 !
 CONSTITUENT CE2SN5 :CE :SN : !
 PARAMETER G(CE2SN5,CE:SN;0) 298.15     
 -7.13812432E4+11.525*T+0.286*GHSERCE#+0.714*GHSERSN#;
  4000 N !

 PHASE CESN3 % 2 0.25 0.75 !
 CONSTITUENT CESN3 :CE :SN : !
 PARAMETER G(CESN3,CE:SN;0) 298.15     
 -6.08802E4+6.0912357*T+0.25*GHSERCE#+0.75*GHSERSN#;
  4000 N !

 PHASE T1CE5CUSN3 % 3 0.556 0.111 0.333 !
 CONSTITUENT T1CE5CUSN3 :CE :CU: SN: !
 PARAMETER G(T1CE5CUSN3,CE:CU:SN;0) 298.15 -66295+6.905*T
 +0.556*GHSERCE#+0.111*GHSERCU#+0.333*GHSERSN#; 4000 N !

 PHASE T2CECUSN % 3 0.333 0.333 0.334 !
 CONSTITUENT T2CECUSN :CE :CU : SN : !
 PARAMETER G(T2CECUSN,CE:CU:SN;0) 298.15 -64475+7.52*T
 +0.333*GHSERCE#+0.333*GHSERCU#+0.334*GHSERSN#; 4000 N !

 PHASE T3CE3CU4SN4 % 3 0.272 0.364 0.364 !
 CONSTITUENT T3CE3CU4SN4 :CE :CU : SN : !
 PARAMETER G(T3CE3CU4SN4,CE:CU:SN;0) 298.15 -58015+4.950*T
 +0.272*GHSERCE#+0.364*GHSERCU#+0.364*GHSERSN#; 4000 N !

 PHASE T4CECUSN % 3 0.333 0.20 0.467 !
 CONSTITUENT T4CECUSN :CE :CU : SN : !
 PARAMETER G(T4CECUSN,CE:CU:SN;0) 298.15 -65885+2.5*T
 +0.333*GHSERCE#+0.2*GHSERCU#+0.467*GHSERSN#; 4000 N !

 PHASE T5CECUSN2 % 3 0.285 0.125 0.59 !
 CONSTITUENT T5CECUSN2 :CE :CU :SN : !
 PARAMETER G(T5CECUSN2,CE:CU:SN;0) 298.15 -66415+3.8*T
 +0.285*GHSERCE#+0.125*GHSERCU#+0.59*GHSERSN; 4000 N !

 PHASE T6CECU2SN2 % 3 0.2 0.4 0.4 !
 CONSTITUENT T6CECU2SN2 :CE :CU :SN : !
 PARAMETER G(T6CECU2SN2,CE:CU:SN;0) 298.15 -51578+4.5*T
 +0.2*GHSERCE#+0.4*GHSERCU#+0.4*GHSERSN#; 4000 N !
 
 PHASE T7CECU9SN4 % 3 0.071 0.643 0.286 !
 CONSTITUENT T7CECU9SN4 :CE :CU :SN : !
 PARAMETER G(T7CECU9SN4,CE:CU:SN;0) 298.15 -29500+8.55*T
 +0.071*GHSERCE#+0.643*GHSERCU#+0.286*GHSERSN#; 4000 N !

 PHASE T8CE2CU9SN3 % 3 0.123 0.643 0.214 !
 CONSTITUENT T8CE2CU9SN3 :CE :CU :SN : !
 PARAMETER G(T8CE2CU9SN3,CE:CU:SN;0) 298.15 -26662-2.53*T
 +0.123*GHSERCE#+0.643*GHSERCU#+0.214*GHSERSN#; 4000 N !

 PHASE T9CECU5SN % 3 0.143 0.714 0.143 !
 CONSTITUENT T9CECU5SN :CE :CU :SN : !
 PARAMETER G(T9CECU5SN,CE:CU:SN;0) 298.15 -26991+1.85*T
 +0.143*GHSERCE#+0.714*GHSERCU#+0.143*GHSERSN#; 4000 N !