
$ Database file written 2013- 9-20
$ From database: USER                    
 ELEMENT /-   ELECTRON_GAS              0.0000E+00  0.0000E+00  0.0000E+00!
 ELEMENT VA   VACUUM                    0.0000E+00  0.0000E+00  0.0000E+00!
 ELEMENT CR   BCC_A2                    5.1996E+01  4.0500E+03  2.3560E+01!
 ELEMENT NB   BCC_A2                    9.2906E+01  5.2200E+03  3.6270E+01!
 ELEMENT ZR   HCP_A3                    9.1224E+01  5.5663E+03  3.9181E+01!
 

FUNCTION GBCCNB   298.15  -8519.35+142.04548*T-26.4711*T*LN(T)
                           +0.20348E-3*T**2+93399*T**(-1)
                           -0.35012E-6*T**3;  2750.00 Y
                           -37669.30+271.72084*T-41.77*T*LN(T)
                           +1.52824E+32*T**(-9);  6000.00 N !


FUNCTION GBCCCR 298.15  -8856.94+157.48*T-26.908*T*LN(T)
 	   +1.89435E-03*T**2-1.47721E-06*T**3+139250*T**(-1);
		  2180.0 Y -34869.34+344.18*T-50.0*T*LN(T)
                        -2.88526E+32*T**(-9); 4000.0 N !


FUNCTION GHCPZR  1.30000E+02  -7827.595+125.64905*T-24.1618*T*LN(T)                    
 -.00437791*T**2+34971*T**(-1);  2.12800E+03  Y                               
 -26085.921+262.724183*T-42.144*T*LN(T)
 -1.342896E+31*T**(-9); 6.0000E+03 N !      
 FUNCTION UN_ASS 298.15 0; 300 N !

 
 TYPE_DEFINITION % SEQ *!
 DEFINE_SYSTEM_DEFAULT ELEMENT 2 !
 DEFAULT_COMMAND DEF_SYS_ELEMENT VA /- !


 PHASE LIQUID:L %  1  1.0  !
    CONSTITUENT LIQUID:L :CR,NB,ZR :  !

   PARAMETER G(LIQUID,CR;0)  2.98150E+02  +15483.015+146.059775*T
  -26.908*T*LN(T)+.00189435*T**2-1.47721E-06*T**3+139250*T**(-1)
  +2.37615E-21*T**7;  2.18000E+03  Y
   -16459.984+335.616316*T-50*T*LN(T);  6.00000E+03  N REF1 !
   PARAMETER G(LIQUID,NB;0)  2.98150E+02  +21262.202+131.229057*T
  -26.4711*T*LN(T)+2.03475E-04*T**2-3.5012E-07*T**3+93399*T**(-1)
  -3.06098E-23*T**7;  2.75000E+03  Y
   -7499.398+260.756148*T-41.77*T*LN(T);  6.00000E+03  N REF1 !
   PARAMETER G(LIQUID,ZR;0)  2.98150E+02  +10320.095+116.568238*T
  -24.1618*T*LN(T)-.00437791*T**2+34971*T**(-1)+1.6275E-22*T**7;  
  2.12800E+03  Y
   -8281.26+253.812609*T-42.144*T*LN(T);  6.00000E+03  N REF1 !
   PARAMETER G(LIQUID,CR,NB;0)  2.98150E+02  -11204.91+.60618*T;   
  6.00000E+03   N REF0 !
   PARAMETER G(LIQUID,CR,NB;1)  2.98150E+02  -8513.45-.5008*T;   6.00000E+03 
    N REF0 !
   PARAMETER G(LIQUID,CR,ZR;0)  2.98150E+02  -10071.34+1.20015*T;   
  6.00000E+03   N REF0 !
   PARAMETER G(LIQUID,CR,ZR;1)  2.98150E+02  -1425.96-.74259*T;   
  6.00000E+03   N REF0 !
   PARAMETER G(LIQUID,CR,ZR;2)  2.98150E+02  -8284.87+.92383*T;   
  6.00000E+03   N REF0 !
   PARAMETER G(LIQUID,NB,ZR;0)  2.98150E+02  10311;   6.00000E+03   N REF0 !
   PARAMETER G(LIQUID,NB,ZR;1)  2.98150E+02  6709;   6.00000E+03   N REF0 !

   PARAMETER G(LIQUID,CR,NB,ZR;0)  2.98150E+02   16709;   6.00000E+03   N REF0 !




 TYPE_DEFINITION & GES A_P_D BCC_A2 MAGNETIC  -1.0    4.00000E-01 !
 PHASE BCC_A2  %&  2 1   3 !
    CONSTITUENT BCC_A2  :CR%,NB%,ZR : VA% :  !

   PARAMETER G(BCC_A2,CR:VA;0)  2.98150E+02  -8856.94+157.48*T
  -26.908*T*LN(T)+.00189435*T**2-1.47721E-06*T**3+139250*T**(-1);  
  2.18000E+03  Y
   -34869.344+344.18*T-50*T*LN(T)-2.885261E+32*T**(-9);  6.00000E+03  N REF0 !
   PARAMETER TC(BCC_A2,CR:VA;0)  2.98150E+02  -311.5;   6.00000E+03   N REF0 !
   PARAMETER BMAGN(BCC_A2,CR:VA;0)  2.98150E+02  -.008;   6.00000E+03   N 
  REF0 !
   PARAMETER G(BCC_A2,NB:VA;0)  2.98150E+02  -8519.353+142.045475*T
  -26.4711*T*LN(T)+2.03475E-04*T**2-3.5012E-07*T**3+93399*T**(-1);  
  2.75000E+03  Y
   -37669.3+271.720843*T-41.77*T*LN(T)+1.528239E+32*T**(-9);  6.00000E+03  N 
  REF0 !
   PARAMETER G(BCC_A2,ZR:VA;0)  2.98150E+02  -525.539+124.9457*T
  -25.607406*T*LN(T)-3.40084E-04*T**2-9.729E-09*T**3+25233*T**(-1)
  -7.6143E-11*T**4;  2.12800E+03  Y
   -30705.955+264.284163*T-42.144*T*LN(T)+1.276059E+32*T**(-9);  6.00000E+03 
   N REF0 !
   PARAMETER G(BCC_A2,CR,NB:VA;0)  2.98150E+02  +43600-13.6*T;   
  6.00000E+03   N REF0 !
   PARAMETER G(BCC_A2,CR,NB:VA;1)  2.98150E+02  +13755.2-6.8*T;   
  6.00000E+03   N REF0 !
   PARAMETER G(BCC_A2,CR,ZR:VA;0)  2.98150E+02  48365.47-13.9*T;   
  6.00000E+03   N REF0 !
   PARAMETER G(BCC_A2,CR,ZR:VA;1)  2.98150E+02  10065.57-6.1*T;   6.00000E+03   N 
  REF0 !
   PARAMETER G(BCC_A2,NB,ZR:VA;0)  2.98150E+02  +15911+3.35*T;   6.00000E+03 
    N REF0 !
   PARAMETER G(BCC_A2,NB,ZR:VA;1)  2.98150E+02  +3919-1.091*T;   6.00000E+03 
    N REF0 !
   PARAMETER TC(BCC_A2,CR:VA;0)  2.98150E+02  -311.5;   6.00000E+03   N  !
   PARAMETER BMAGN(BCC_A2,CR:VA;0)  2.98150E+02  -.008;   6.00000E+03   N !

   PARA  G(BCC_A2,CR,NB,ZR:VA;0)  2.98150E+02        54600;   6.00000E+03 
    N REF0 !
   PARA  G(BCC_A2,CR,NB,ZR:VA;1)  2.98150E+02       -18200;   6.00000E+03 
    N REF0 !
   PARA  G(BCC_A2,CR,NB,ZR:VA;2)  2.98150E+02        69500;   6.00000E+03 
    N REF0 !


 TYPE_DEFINITION ) GES A_P_D HCP_A3 MAGNETIC  -3.0    2.80000E-01 !
 PHASE HCP_A3  %)  2 1   .5 !
    CONSTITUENT HCP_A3  :CR,NB,ZR% : VA% :  !

   PARAMETER G(HCP_A3,CR:VA;0)  2.98150E+02  -4418.94+157.48*T
  -26.908*T*LN(T)+.00189435*T**2-1.47721E-06*T**3+139250*T**(-1);  
  2.18000E+03  Y
   -30431.344+344.18*T-50*T*LN(T)-2.885261E+32*T**(-9);  6.00000E+03  N   !
   PARAMETER TC(HCP_A3,CR:VA;0)  2.98150E+02  -1109;   6.00000E+03   N   !
   PARAMETER BMAGN(HCP_A3,CR:VA;0)  2.98150E+02  -2.46;   6.00000E+03   N 
  REF0 !
   PARAMETER G(HCP_A3,NB:VA;0)  2.98150E+02  +1480.647+144.445475*T
  -26.4711*T*LN(T)+2.03475E-04*T**2-3.5012E-07*T**3+93399*T**(-1);  
  2.75000E+03  Y
   -27669.3+274.120843*T-41.77*T*LN(T)+1.528239E+32*T**(-9);  6.00000E+03  N 
  REF0 !
   PARAMETER G(HCP_A3,ZR:VA;0)  1.30000E+02  -7827.595+125.64905*T
  -24.1618*T*LN(T)-.00437791*T**2+34971*T**(-1);  2.12800E+03  Y
   -26085.921+262.724183*T-42.144*T*LN(T)-1.342897E+31*T**(-9);  6.00000E+03 
   N REF0 !
   PARAMETER G(HCP_A3,CR,ZR:VA;0)  2.98150E+02  89700-11*T;   6.00000E+03   N 
  REF0 !
   PARAMETER G(HCP_A3,CR,ZR:VA;1)  2.98150E+02  38800+6*T;   6.00000E+03   N 
  REF0 !
   PARAMETER G(HCP_A3,NB,ZR:VA;0)  2.98150E+02  24411;   6.00000E+03   N 
  REF0 !

   PARAMETER G(HCP_A3,CR,NB,ZR:VA;0)  2.98150E+02     64500;   6.00000E+03   N 
  REF0 !



$TYPE_DEFINITION * GES A_P_D LAVES_C14 MAGNETIC  -3.0    2.80000E-01 !
 PHASE LAVES_C14    %  2 2 1  !
 CONST LAVES_C14    :ZR,CR,NB
              :ZR,CR,NB : !
 FUN EVTOJ 298.15 96485.5547;,, N !
 FUN GHCR 298.15 GBCCCR;,, N  !
 FUN GHNB 298.15 GBCCNB;,, N  !
 FUN GHZR 298.15 GHCPZR;,, N  !
 FUN EBCCCR 298.15  -9.47005*EVTOJ;,, N DFT !
 FUN EBCCNB 298.15  -10.1945*EVTOJ;,, N DFT !
 FUN EHCPZR 298.15  -8.4354*EVTOJ;,, N DFT !



 PARA G(LAVES_C14,ZR:ZR;0) 298.15 -4.3*T-24.6596*EVTOJ
                      -3*EHCPZR+3*GHZR;,, N DFT !
 PARA G(LAVES_C14,CR:CR;0) 298.15 -2.3*T-27.546375*EVTOJ
                   -3*EBCCCR+3*GHCR;,, N DFTSIG !
 PARA G(LAVES_C14,NB:NB;0) 298.15 -30.101168*EVTOJ
                   -3*EBCCNB+3*GHNB;,, N DFTSIG !
 PARA G(LAVES_C14,CR:NB;0) 298.15 9*T-29.2147*EVTOJ
      -2*EBCCCR-1*EBCCNB+2*GHCR+1*GHNB;,, N DFTSIG !
 PARA G(LAVES_C14,NB:CR;0) 298.15 9*T-27.6101*EVTOJ
      -2*EBCCNB-1*EBCCCR+2*GHNB+1*GHCR;,, N DFTSIG !
 PARA G(LAVES_C14,ZR:CR;0) 298.15 -8.2*T-23.4474*EVTOJ
           -2*EHCPZR-1*EBCCCR+2*GHZR+1*GHCR;,, N DFT !
 PARA G(LAVES_C14,CR:ZR;0) 298.15 -11.85*T-27.4693*EVTOJ
           -2*EBCCCR-1*EHCPZR+2*GHCR+1*GHZR;,, N DFT !
 PARA G(LAVES_C14,ZR:NB;0) 298.15 -25.7859*EVTOJ+8*T  
      -2*EHCPZR-1*EBCCNB+2*GHZR+1*GHNB;,, N DFTSIG !
 PARA G(LAVES_C14,NB:ZR;0) 298.15 -28.7743*EVTOJ+8*T
      -2*EBCCNB-1*EHCPZR+2*GHNB+1*GHZR;,, N DFTSIG !

      PARAMETER G(LAVES_C14,CR,NB:NB;0)  298.15      0;,, N!
      PARAMETER G(LAVES_C14,CR:CR,NB;0)  298.15      0;,, N!
      PARAMETER G(LAVES_C14,CR,ZR:ZR;0)  298.15  27800;,, N!
      PARAMETER G(LAVES_C14,CR:CR,ZR;0)  298.15 -22800;,, N!

      PARAMETER G(LAVES_C14,ZR:ZR,NR;0)  298.15      0;,, N!
      PARAMETER G(LAVES_C14,ZR,NB:ZR;0)  298.15      0;,, N!

      PARAMETER G(LAVES_C14,ZR,CR,NB:ZR;0)  298.15   0;,,  N!
      PARAMETER G(LAVES_C14,ZR:ZR,CR,NR;0)  298.15   0;,,  N!

$TYPE_DEFINITION * GES A_P_D LAVES_C15 MAGNETIC  -3.0    2.80000E-01 !
 PHASE LAVES_C15  %  2 2   1 !
    CONSTITUENT LAVES_C15  :ZR,CR,NB :ZR,CR,NB :  !

 FUN GHCRC15 298.15 GBCCCR;,, N  !
 FUN GHNBC15 298.15 GBCCNB;,, N  !
 FUN GHZRC15 298.15 GHCPZR;,, N  !

    PARA G(LAVES_C15,ZR:ZR;0) 298.15 -8.33*T-24.4651*EVTOJ
           -3*EHCPZR+3*GHZRC15;,, N DFT !
    PARA G(LAVES_C15,CR:CR;0) 298.15 -2.59*T-27.5875*EVTOJ
               -3*EBCCCR+3*GHCRC15; 6000 N !
    PARA G(LAVES_C15,NB:NB;0) 298.15 0.31*T-30.0759*EVTOJ
               -3*EBCCNB+3*GHNBC15; 6000 N !
    PARA G(LAVES_C15,NB:CR;0)  298.15 -7.65*T-27.6478*EVTOJ
      -2*EBCCNB-1*EBCCCR+1*GHCRC15+2*GHNBC15;,, N DFTSIG ! 
    PARA G(LAVES_C15,CR:NB;0)  298.15 -8.23*T-29.2595*EVTOJ
      -2*EBCCCR-1*EBCCNB+2*GHCRC15+1*GHNBC15;,, N DFTSIG !
    PARA G(LAVES_C15,ZR:CR;0) 298.15 -8.46*T-23.1996*EVTOJ
           -2*EHCPZR-1*EBCCCR+2*GHZRC15+1*GHCRC15;,, N DFT !
    PARA G(LAVES_C15,CR:ZR;0) 298.15 -9.22*T-27.5203*EVTOJ
           -2*EBCCCR-1*EHCPZR+2*GHCRC15+1*GHZRC15;,, N DFT !
    PARA G(LAVES_C15,ZR:NB;0) 298.15 -25.5613*EVTOJ+9*T
           -2*EHCPZR-1*EBCCNB+2*GHZR+1*GHNB;,, N DFTSIG !
    PARA G(LAVES_C15,NB:ZR;0) 298.15 -28.6803*EVTOJ+9.4*T
           -2*EBCCNB-1*EHCPZR+2*GHNB+1*GHZR;,, N DFTSIG !


      PARAMETER G(LAVES_C15,CR,NB:NB;0)  298.15    50900;,,   N!
      PARAMETER G(LAVES_C15,CR:CR,NB;0)  298.15   -40400;,,  N!
      PARAMETER G(LAVES_C15,CR:CR,ZR;0)  298.15   -16500;,,   N!
      PARAMETER G(LAVES_C15,CR,ZR:ZR;0)  298.15    16850;,,   N!

      PARAMETER G(LAVES_C15,ZR,NB:ZR;0)  298.15        -83500;,,   N!
      PARAMETER G(LAVES_C15,NB:NB,ZR;0)  298.15      -35500;,,   N!

      PARAMETER G(LAVES_C15,ZR,CR,NB:NB;0)  298.15       0;,,   N!
      PARAMETER G(LAVES_C15,ZR,CR,NB:CR;0)  298.15     0;,,   N!
      PARAMETER G(LAVES_C15,ZR:ZR,CR,NB;0)  298.15      0;,,   N!
      PARAMETER G(LAVES_C15,NB:ZR,CR,NB;0)  298.15     0;,,   N!
      PARAMETER G(LAVES_C15,CR:ZR,CR,NB;0)  298.15       -93650;,,   N!
      PARAMETER G(LAVES_C15,ZR,CR:ZR,CR,NB;0)  298.15    0;,,   N!
      PARAMETER G(LAVES_C15,NB,CR:ZR,CR,NB;0)  298.15      0;,,   N!
      PARAMETER G(LAVES_C15,ZR,CR:ZR,CR,NB;0)  298.15     0;,,   N!


 PHASE LAVES_C36  %  2 2   1 !
    CONSTITUENT LAVES_C36  :ZR,CR,NB : ZR,CR,NB :  !


 FUN GHCRC36 298.15 GBCCCR;,, N  !
 FUN GHZRC36 298.15 GHCPZR;,, N  !
 FUN GHNBC36 298.15 GBCCNB;,, N  !


   PARA G(LAVES_C36,ZR:ZR;0) 298.15 -3.44*T-24.5887*EVTOJ
           -3*EHCPZR+3*GHZRC36;,, N DFT !
   PARA G(LAVES_C36,CR:CR;0) 298.15 -6.33*T-27.6032*EVTOJ
           -3*EBCCCR+3*GHCRC36;,, N DFT !
   PARA G(LAVES_C36,NB:NB;0) 298.15 -0.36*T-30.0826*EVTOJ
           -3*EBCCNB+3*GHNBC36; 6000 N !
   PARA G(LAVES_C36,ZR:CR;0) 298.15 -8.51*T-23.9757*EVTOJ
           -2*EHCPZR-1*EBCCCR+2*GHZRC36+1*GHCRC36;,, N DFT !
   PARA G(LAVES_C36,CR:ZR;0) 298.15 -10.4*T-27.4979*EVTOJ
           -2*EBCCCR-1*EHCPZR+2*GHCRC36+1*GHZRC36;,, N DFT !
   PARA G(LAVES_C36,NB:ZR;0)  298.15  9*T-28.7301*EVTOJ
      -2*EBCCNB-1*EHCPZR+1*GHZRC36+2*GHNBC36;,, N DFTSIG ! 
   PARA G(LAVES_C36,ZR:NB;0)  298.15    1*T-25.7044*EVTOJ
      -2*EHCPZR-1*EBCCNB+2*GHZRC36+1*GHNBC36;,, N DFTSIG !
   PARA G(LAVES_C36,NB:CR;0)  298.15    1*T-27.6160*EVTOJ
      -2*EBCCNB-1*EBCCCR+1*GHCRC36+2*GHNBC36;,, N DFTSIG ! 
   PARA G(LAVES_C36,CR:NB;0)  298.15    1*T-29.2436*EVTOJ
      -2*EBCCCR-1*EBCCNB+2*GHCRC36+1*GHNBC36;,, N DFTSIG !


     PARAMETER G(LAVES_C36,CR:ZR,CR;0)  298.15  -9540;,,   N!
     PARAMETER G(LAVES_C36,ZR,CR:ZR;0)  298.15  19750;,,   N!

     PARAMETER G(LAVES_C36,ZR,NB:ZR;0)  298.15       0;,,   N!
     PARAMETER G(LAVES_C36,NB:ZR,NB;0)  298.15       0;,,   N!

     PARAMETER G(LAVES_C36,NB,CR:NB;0)  298.15      0;,,   N!
     PARAMETER G(LAVES_C36,CR:ZR,NB;0)  298.15      0;,,   N!





 LIST_OF_REFERENCES
 NUMBER  SOURCE
   Made by Haijin Lu based on DFT calculation 

  ! 
 
