$
$ Database for Fe-Mn-C from D. Djurovic et al. 2011
$
$ D. Djurovic, B. Hallstedt, J. von Appen, R. Dronskowski,
$ Calphad, submitted, 2011.
$ 
$ ------------------------------------------------------------------------------
 TEMP-LIM 298.15 6000.00 !
$
$ELEMENT NAME  REF. STATE               ATOMIC MASS H298-H0    S298    !
$
 ELEMENT VA   VACUUM                      0.0          0.0      0.0    ! 
 ELEMENT C    GRAPHITE                   12.011     1054.0      5.7423 ! 
 ELEMENT FE   BCC_A2                     55.847     4489.0     27.2797 ! 
 ELEMENT MN   CBCC_A12                   54.9380    4995.696   32.2206 ! 
$ ------------------------------------------------------------------------------
$ Phase definitions
$
 PHASE LIQUID:L % 1 1 !
 CONST LIQUID:L : C FE MN : !
$
$ Fcc (cF4, Fm-3m) and MeX (cF8, Fm-3m)
$
 PHASE FCC_A1 %A 2 1 1 !
 CONST FCC_A1 : FE MN : C VA% : !
$
$ Bcc (cI2, Im-3m)
$
 PHASE BCC_A2 %B 2 1 3 !
 CONST BCC_A2 : FE MN : C VA% : !
$
$ Hcp (hP2, P6_3/mmc) and Me2X (NiAs-type, hP4, P6_3/mmc, B8_1)
$
 PHASE HCP_A3 %A 2 1 0.5 !
 CONST HCP_A3 : FE MN : C VA% : !
$
$ Prototype alpha-Mn (cI58, I-43m)
$
 PHASE CBCC_A12 %A 2 1 1 !
 CONST CBCC_A12 : FE MN : C VA% : !
$
$ Prototype beta-Mn (cP20, P4_132)
$
 PHASE CUB_A13 % 2 1 1 !
 CONST CUB_A13 : FE MN : C VA% : !
$
$ Prototype C (cF8, Fd-3m)
$
 PHASE DIAMOND_A4 % 1 1 !
 CONST DIAMOND_A4 : C : !
$
$ Prototype C (hP4, P6_3/mmc)
$
 PHASE GRAPHITE % 1 1 !
 CONST GRAPHITE : C : !
$
$ Prototype Fe3C (oP16, Pnma)
$
 PHASE CEMENTITE_D011 %A 2 3 1 !
 CONST CEMENTITE_D011 : FE MN : C : !
$
$ Prototype Cr7C3 (oP40, Pnma)
$
 PHASE M7C3_D101 % 2 7 3 !
 CONST M7C3_D101 : FE MN : C : !
$
$ Prototype Cr23C6 (cF116, Fm-3m)
$
 PHASE M23C6_D84 % 3 20 3 6 !
 CONST M23C6_D84 : FE MN : FE MN : C : !
$
$ Prototype Mn5C2 (mC28, C2/c), Haegg carbide, chi
$
 PHASE M5C2 % 2 5 2 !
 CONST M5C2 : FE MN : C : !
$ 
$ ------------------------------------------------------------------------------
$ Defaults
$
 DEFAULT-COM DEFINE_SYSTEM_ELEMENT VA !
 TYPE-DEFINITION % SEQ * !
 TYPE_DEF A GES AMEND_PHASE_DESCRIPTION @ MAGNETIC -3 0.28 !
 TYPE_DEF B GES AMEND_PHASE_DESCRIPTION @ MAGNETIC -1 0.4 !
 FUNCTION ZERO      298.15  0;                                         6000 N !
 FUNCTION UN_ASS    298.15  0;                                         6000 N !
$ ------------------------------------------------------------------------------
$ Element data
$ ------------------------------------------------------------------------------
$ C
$
$ Low temperature range for graphite added by 10Hal. Identical to 91Din
$ above 350 K.
$ Low temperature range for diamond added by 09Dju. Identical to 91Din
$ above 330 K.
$
 PAR  G(GRAPHITE,C) 0.01                +GHSERCC;,,                   N 10Hal !
 PAR  G(DIAMOND_A4,C) 0.01              +GDIACC;,,                    N 09Dju !
 PAR  G(LIQUID,C),,                     +GHSERCC+117369-24.63*T;,,    N 91Din !
$
 FUNCTION GHSERCC     0.01  -1049.140845-0.09009204*T-2.75e-5*T**3;
       103.00  Y -988.25091-7.39898691*T+1.76583*T*LN(T)-1.706952E-2*T**2;  
       350.00  Y -17368.441+170.73*T-24.3*T*LN(T)
       -4.723E-04*T**2+2562600*T**(-1)-2.643E+08*T**(-2)+1.2E+10*T**(-3);
      6000.00  N !
$ Original function from 91Din below
$FUNCTION GHSERCC   298.15  -17368.441+170.73*T-24.3*T*LN(T)
$      -4.723E-04*T**2+2562600*T**(-1)-2.643E+08*T**(-2)+1.2E+10*T**(-3);
$     6000.00  N !
 FUNCTION GDIACC      0.01  +1366.3694392+3.75684493E-2*T-1.795e-8*T**4;
        78.00  Y  +3386.8147-64.4266811*T+11.71699*T*LN(T)-3.04E-2*T**2
       +3.3333E-06*T**3-91196.5*T**(-1)+2797170*T**(-2)-3.882074E+7*T**(-3);  
       330.00  Y  -16359.441+175.61*T-24.31*T*LN(T)
       -4.723E-04*T**2+2698000*T**(-1)-2.61E+08*T**(-2)+1.11E+10*T**(-3);
      6000.00  N !
$ Original function from 91Din below
$FUNCTION GDIACC    298.15  -16359.441+175.61*T-24.31*T*LN(T)
$      -4.723E-04*T**2+2698000*T**(-1)-2.61E+08*T**(-2)+1.11E+10*T**(-3);
$     6000.00  N !
$ ------------------------------------------------------------------------------
$ Fe
$
$ Low temperature range for bcc-Fe added by 10Hal. Identical to 91Din
$ above 170 K.
$
 PAR  G(BCC_A2,FE:VA) 0.01              +GHSERFE;,,                   N 10Hal !
 PAR  TC(BCC_A2,FE:VA),,                 1043.00;,,                   N 91Din !
 PAR  BM(BCC_A2,FE:VA),,                    2.22;,,                   N 91Din !
 PAR  G(FCC_A1,FE:VA),,                 +GFCCFE;,,                    N 91Din !
 PAR  TC(FCC_A1,FE:VA),,                 -201.00;,,                   N 91Din !
 PAR  BM(FCC_A1,FE:VA),,                   -2.10;,,                   N 91Din !
 PAR  G(HCP_A3,FE:VA),,                 +GHCPFE;,,                    N 91Din !
 PAR  G(CBCC_A12,FE:VA),,               +GHSERFE+4745;,,              N 91Din !
 PAR  G(CUB_A13,FE:VA),,                +GHSERFE+3745;,,              N 91Din !
 PAR  G(LIQUID,FE),,                    +GLIQFE;,,                    N 91Din !
$
 FUNCTION GHSERFE     0.01  +4701.3908-9.929623*T-1.975e-6*T**4;
        50.00  Y  +4871.6848-41.511332*T+8.75517*T*LN(T)
       -0.13106*T**2+9.2615E-5*T**3;  
       170.00  Y  +1225.7+124.134*T-23.5143*T*LN(T)
       -0.00439752*T**2-5.8927E-08*T**3+77359*T**(-1);
      1811.00  Y  -25383.581+299.31255*T-46*T*LN(T)+2.29603E+31*T**(-9);
      6000.00  N !
$ Original function from 91Din below
$FUNCTION GHSERFE   298.15  +1225.7+124.134*T-23.5143*T*LN(T)
$      -0.00439752*T**2-5.8927E-08*T**3+77359*T**(-1);
$     1811.00  Y  -25383.581+299.31255*T-46*T*LN(T)+2.29603E+31*T**(-9);
$     6000.00  N !
 FUNCTION GFCCFE    298.15  -1462.4+8.282*T-1.15*T*LN(T)
       +6.4E-04*T**2+GHSERFE;
      1811.00  Y  -1713.815+0.940009*T+GHSERFE+4.9251E+30*T**(-9);
      6000.00  N !
 FUNCTION GHCPFE    298.15  -3705.78+12.591*T-1.15*T*LN(T)
       +6.4E-04*T**2+GHSERFE;
      1811.00  Y  -3957.195+5.249009*T+GHSERFE+4.9251E+30*T**(-9);
      6000.00  N !
 FUNCTION GLIQFE    298.15  +12040.17-6.55843*T+GHSERFE-3.67516E-21*T**7;
      1811.00  Y  -10838.83+291.302*T-46*T*LN(T);
      6000.00  N !
$ ------------------------------------------------------------------------------
$ Mn
$
$ Low temperature range for alpha-Mn added by 09Dju. Identical to 91Din
$ above 165 K.
$
 PAR  G(CBCC_A12,MN:VA) 0.01            +GHSERMN;                2000 N 09Dju !
 PAR  TC(CBCC_A12,MN:VA) 0.01            -285.00;                2000 N 91Din !
 PAR  BM(CBCC_A12,MN:VA) 0.01              -0.66;                2000 N 91Din !
 PAR  G(CUB_A13,MN:VA),,                +GCUBMN;                 2000 N 91Din !
 PAR  G(FCC_A1,MN:VA),,                 +GFCCMN;                 2000 N 91Din !
 PAR  TC(FCC_A1,MN:VA),,                -1620.00;                2000 N 91Din !
 PAR  BM(FCC_A1,MN:VA),,                   -1.86;                2000 N 91Din !
 PAR  G(BCC_A2,MN:VA),,                 +GBCCMN;                 2000 N 91Din !
 PAR  TC(BCC_A2,MN:VA),,                 -580.00;                2000 N 91Din !
 PAR  BM(BCC_A2,MN:VA),,                   -0.27;                2000 N 91Din !
 PAR  G(HCP_A3,MN:VA),,                 +GHCPMN;                 2000 N 91Din !
 PAR  TC(HCP_A3,MN:VA),,                -1620.00;                2000 N 91Din !
 PAR  BM(HCP_A3,MN:VA),,                   -1.86;                2000 N 91Din !
 PAR  G(LIQUID,MN),,                    +GLIQMN;                 2000 N 91Din !
$
 FUNCTION GHSERMN     0.01  -4901.51892-1.0947477*T-4.25E-6*T**4;
        36.70  Y  -4822.7003-20.019344*T+5.82736*T*LN(T)
       -0.12386*T**2+8.75E-5*T**3;
       165.00  Y  -8115.28+130.059*T-23.4582*T*LN(T)
       -0.00734768*T**2+69827*T**(-1);
      1519.00  Y  -28733.41+312.2648*T-48*T*LN(T)+1.656847E+30*T**(-9);
      2000.00  N !
$ Original function from 91Din below
$FUNCTION GHSERMN   298.15  -8115.28+130.059*T-23.4582*T*LN(T)
$      -0.00734768*T**2+69827*T**(-1);
$     1519.00  Y  -28733.41+312.2648*T-48*T*LN(T)+1.656847E+30*T**(-9);
$     2000.00  N !
 FUNCTION GCUBMN    298.15  -5800.4+135.995*T-24.8785*T*LN(T)
       -0.00583359*T**2+70269*T**(-1);
      1519.00  Y  +442.65-0.9715*T+GHSERMN+2.310723E+30*T**(-9);
      2000.00  N !
 FUNCTION GFCCMN    298.15  -3439.3+131.884*T-24.5177*T*LN(T)
       -0.006*T**2+69600*T**(-1);
      1519.00  Y  +2663.31-2.5984*T+GHSERMN+2.205113E+30*T**(-9);
      2000.00  N !
 FUNCTION GBCCMN    298.15  -3235.3+127.85*T-23.7*T*LN(T)
       -0.00744271*T**2+60000*T**(-1);
      1519.00  Y  +5544.58-4.5605*T+GHSERMN-3.91695E+29*T**(-9);
      2000.00  N !
 FUNCTION GHCPMN    298.15  -4439.3+133.007*T-24.5177*T*LN(T)
       -0.006*T**2+69600*T**(-1);
      1519.00  Y  +1663.31-1.4754*T+GHSERMN+2.205113E+30*T**(-9);
      2000.00  N !
 FUNCTION GLIQMN    298.15  +17859.91-12.6208*T+GHSERMN-4.41929E-21*T**7;
      1519.00  Y  -9993.9+299.036*T-48*T*LN(T);
      2000.00  N !
$ ------------------------------------------------------------------------------
$ Binary systems
$ ------------------------------------------------------------------------------
$ Fe-C
$
$ From B. Hallstedt et al. 2010
$
$ Based on the assessment by P. Gustafson 1985.
$ Cementite has been changed. Bcc-Fe, graphite and cementite have Gibbs energy
$ expressions valid from 0.01 K.
$
$ BCC_A2 is stable above 4000 K around x(C)=0.33.
$ There is an inverse miscibility gap in the liquid with a minimum at
$ 5559 K and x(C)=0.53.
$
 PAR  L(LIQUID,C,FE;0),,                -124320+28.5*T;,,             N 85Gus !
 PAR  L(LIQUID,C,FE;1),,                +19300;,,                     N 85Gus !
 PAR  L(LIQUID,C,FE;2),,                +49260-19*T;,,                N 85Gus !
$
 PAR  G(BCC_A2,FE:C),,                  +GHSERFE+3*GHSERCC
             +322050+75.667*T;,,                                      N 85Gus !
 PAR  TC(BCC_A2,FE:C),,                  1043.00;,,                   N 85Gus !
 PAR  BM(BCC_A2,FE:C),,                     2.22;,,                   N 85Gus !
 PAR  L(BCC_A2,FE:C,VA;0),,             -190*T;,,                     N 85Gus !
$
 PAR  G(FCC_A1,FE:C),,                  +GFCCFE+GHSERCC
             +77207-15.877*T;,,                                       N 85Gus !
 PAR  TC(FCC_A1,FE:C),,                  -201.00;,,                   N 85Gus !
 PAR  BM(FCC_A1,FE:C),,                    -2.10;,,                   N 85Gus !
 PAR  L(FCC_A1,FE:C,VA;0),,             -34671;,,                     N 85Gus !
$
 PAR  G(CEMENTITE_D011,FE:C),,          +GFECEM;,,                    N 10Hal !
 PAR  TC(CEMENTITE_D011,FE:C),,           485.00;,,                   N 10Hal !
 PAR  BM(CEMENTITE_D011,FE:C),,             1.008;,,                  N 10Hal !
$
$ metastable
$
 PAR  G(HCP_A3,FE:C),,                  +GFCCFE+0.5*GHSERCC
             +52905-11.9075*T;,,                                      N 88And2 !
 PAR  L(HCP_A3,FE:C,VA;0),,             -17335;,,                     N 88And2 !
$
 PAR  G(CBCC_A12,FE:C),,                +GHSERFE+GHSERCC+80000;,,     N 90Hua2 !
 PAR  L(CBCC_A12,FE:C,VA;0),,           -34671;,,                     N 90Hua2 !
$
 PAR  G(CUB_A13,FE:C),,                 +GHSERFE+GHSERCC+90000;,,     N 90Hua2 !
 PAR  L(CUB_A13,FE:C,VA;0),,            -34671;,,                     N 90Hua2 !
$
 PAR  G(FE4N_L1,FE:C),,                 +4*GHSERFE+GHSERCC+23224;,,   N 91Du !
 PAR  G(FECN_CHI,FE:C),,                +2.2*GHSERFE+GHSERCC
             +9131-4.539*T;,,                                         N 91Du !
 PAR  G(KSI_CARBIDE,FE:C),,             +3*GHSERFE+GHSERCC
             +14540+20*T;,,                                           N 88And2 !
 PAR  G(M7C3_D101,FE:C),,               +2.333333*GFECEM
             +0.666667*GHSERCC+13200;,,                               N 11Dju !
$PAR  G(M7C3_D101,FE:C),,               +7*GHSERFE+3*GHSERCC
$            +75000-48.2168*T;,,                                      N 92Lee !
 PAR  G(M23C6_D84,FE:FE:C),,            +GFEM23C6;,,                  N 11Dju !
 PAR  G(M5C2,FE:C),,                    +1.666667*GFECEM
             +0.333333*GHSERCC+6200;,,                                N 11Dju !
$PAR  G(M5C2,FE:C),,                    +5*GHSERFE+2*GHSERCC
$            +54852-33.7518*T;,,                                      N 93Lee2 !
 PAR  G(V3C2,FE:C),,                    +7250+741.566*T
             -125.833*T*LN(T)+779485*T**(-1);,,                       N 91Hua !
$
 FUNCTION GFECEM      0.01  +11369.937746-5.641259263*T-8.333E-6*T**4;
        43.00  Y  +11622.647246-59.537709263*T+15.74232*T*LN(T)
       -0.27565*T**2;
       163.00  Y  -10195.860754+690.949887637*T-118.47637*T*LN(T)
                  -0.0007*T**2+590527*T**(-1);
      6000.00  N !
 FUNCTION GFEM23C6  298.15  +7.666667*GFECEM-1.666667*GHSERCC+15000;   6000 N !
$ Function from 88And3 below
$FUNCTION GFEM23C6  298.15  +7.666667*GFECEM-1.666667*GHSERCC
$      +66920-40*T;
$     6000.00  N !
$ ------------------------------------------------------------------------------
$ Fe-Mn
$
$ From W. Huang 1989 (included in LB Vol. 3)
$
$ Checked against LB. Checked at 6000 K.
$
$ HCP_A3 interaction slightly modified by 11Dju.
$
 PAR  L(LIQUID,FE,MN;0),,               -3950+0.489*T;,,              N 89Hua2 !
 PAR  L(LIQUID,FE,MN;1),,               +1145;,,                      N 89Hua2 !
$
 PAR  L(FCC_A1,FE,MN:VA;0),,            -7762+3.865*T;,,              N 89Hua2 !
 PAR  L(FCC_A1,FE,MN:VA;1),,            -259;,,                       N 89Hua2 !
 PAR  TC(FCC_A1,FE,MN:VA;0),,           -2282;,,                      N 89Hua2 !
 PAR  TC(FCC_A1,FE,MN:VA;1),,           -2068;,,                      N 89Hua2 !
$
 PAR  L(BCC_A2,FE,MN:VA;0),,            -2759+1.237*T;,,              N 89Hua2 !
 PAR  TC(BCC_A2,FE,MN:VA;0),,            +123;,,                      N 89Hua2 !
$
 PAR  L(HCP_A3,FE,MN:VA;0),,            -5748+3.865*T;,,              N 11Dju !
 PAR  L(HCP_A3,FE,MN:VA;1),,            +273;,,                       N 11Dju !
$PAR  L(HCP_A3,FE,MN:VA;0),,            -5582+3.865*T;,,              N 89Hua2 !
$PAR  L(HCP_A3,FE,MN:VA;1),,            +273;,,                       N 89Hua2 !
$
 PAR  L(CBCC_A12,FE,MN:VA;0),,          -10184;,,                     N 89Hua2 !
$
 PAR  L(CUB_A13,FE,MN:VA;0),,           -11518+2.819*T;,,             N 89Hua2 !
$ ------------------------------------------------------------------------------
$ Mn-C
$
$ From D. Djurovic et al. 2010
$
 PAR  L(LIQUID,C,MN;0),,                -179183+43.8449*T;,,          N 10Dju !
 PAR  L(LIQUID,C,MN;1),,                +6313;,,                      N 10Dju !
 PAR  L(LIQUID,C,MN;2),,                +23281;,,                     N 10Dju !
$
 PAR  G(BCC_A2,MN:C),,                  +GHSERMN+3*GHSERCC
             +10000+30*T;,,                                           N 90Hua1 !
$
 PAR  G(FCC_A1,MN:C),,                  +GHSERMN+GHSERCC+13.659*T;,,  N 10Dju !
 PAR  L(FCC_A1,MN:C,VA;0),,             -41333;,,                     N 10Dju !
$
 PAR  G(HCP_A3,MN:C),,                  +GHSERMN+0.5*GHSERCC
             -9000-1.0651*T;,,                                        N 10Dju !
 PAR  L(HCP_A3,MN:C,VA;0),,             -5006;,,                      N 10Dju !
$
 PAR  G(CBCC_A12,MN:C),,                +GHSERMN+GHSERCC
             +27.46525*T;,,                                           N 10Dju !
 PAR  L(CBCC_A12,MN:C,VA;0),,           -52204;,,                     N 10Dju !
$
 PAR  G(CUB_A13,MN:C),,                 +GHSERMN+GHSERCC+2607;,,      N 10Dju !
 PAR  L(CUB_A13,MN:C,VA;0),,            -10175;,,                     N 10Dju !
$
 PAR  G(CEMENTITE_D011,MN:C),,          +GMN3C;,,                     N 10Dju !
 PAR  G(M23C6_D84,MN:MN:C),,            +GMN23C6;,,                   N 10Dju !
 PAR  G(M7C3_D101,MN:C),,               +GMN7C3;,,                    N 10Dju !
 PAR  G(M5C2,MN:C),,                    +GMN5C2;,,                    N 10Dju !
$
$ metastable
$
 PAR  G(V3C2,MN:C),,                    -76135+750.415*T
             -125.589*T*LN(T)+922711*T**(-1);,,                       N 91Fer !
$
 FUNCTION GMN3C     298.15  +3*GHSERMN+GHSERCC-39644+3.04*T;           6000 N !
 FUNCTION GMN23C6   298.15  +23*GHSERMN+6*GHSERCC-310473+53.86*T;      6000 N !
 FUNCTION GMN7C3    298.15  +7*GHSERMN+3*GHSERCC-106695+9.36*T;        6000 N !
 FUNCTION GMN5C2    298.15  +5*GHSERMN+2*GHSERCC-73954+6.36*T;         6000 N !
$ ------------------------------------------------------------------------------
$ Ternary system
$
$ From D. Djurovic et al. 2011
$
 PAR  L(LIQUID,C,FE,MN;0),,             -71514-11.3063*T;,,           N 11Dju !
 PAR  L(LIQUID,C,FE,MN;1),,             +19817;,,                     N 11Dju !
 PAR  L(LIQUID,C,FE,MN;2),,             +27885;,,                     N 11Dju !
$
 PAR  L(FCC_A1,FE,MN:C;0),,             +20082-11.6312*T;,,           N 11Dju !
$
 PAR  L(HCP_A3,FE,MN:C;0),,             +21742-50.2703*T;,,           N 11Dju !
 PAR  L(HCP_A3,FE,MN:C;1),,             -32608;,,                     N 11Dju !
$
 PAR  L(CBCC_A12,FE,MN:C;0),,           -36732;,,                     N 11Dju !
 PAR  L(CUB_A13,FE,MN:C;0),,            -36732;,,                     N 11Dju !
$
 PAR  L(CEMENTITE_D011,FE,MN:C;0),,     -7715+1.3687*T;,,             N 11Dju !
 PAR  L(M5C2,FE,MN:C;0),,               +8743-15.1917*T;,,            N 11Dju !
 PAR  L(M7C3_D101,FE,MN:C;0),,          +20157-24.7104*T;,,           N 11Dju !
$
 PAR  G(M23C6_D84,FE:MN:C),,            +0.869565*GFEM23C6
             +0.130435*GMN23C6;,,                                     N 11Dju !
 PAR  G(M23C6_D84,MN:FE:C),,            +0.130435*GFEM23C6
             +0.869565*GMN23C6;,,                                     N 11Dju !
 PAR  L(M23C6_D84,FE,MN:FE,MN:C;0),,    -95000;,,                     N 11Dju !
$ ------------------------------------------------------------------------------
$
$
 LIST-OF-REFERENCE
 NUMBER  SOURCE
  Null   'Unknown source'
  85Gus  'P. Gustafson, Scand. J. Metall., 14, 259-67(1985); Fe-C'
  88And2 'J.-O. Andersson, Calphad, 12, 9-23(1988); Fe-Mo-C'
  88And3 'J.-O. Andersson, Metall. Trans A, 19A, 627-36(1988); Cr-Fe-C'
  89Hua2 'W. Huang, Calphad, 13, 243-52(1989); Fe-Mn'
  90Hua1 'W. Huang, Scand. J. Metall., 19, 26-32(1990); Mn-C,'
  90Hua2 'W. Huang, Metall. Trans. A, 21A, 2115-23(1990); Fe-Mn-C'
  91Din  'A.T. Dinsdale, Calphad, 15, 317-425(1991).'
  91Du   'H. Du, M. Hillert, Z. Metallkd., 82, 310-16(1991); Fe-C-N'
  91Fer  'A. Fernandez Guillermet, W. Huang,
          Int. J. Thermophys., 12, 1077-1102(1991); Mn-V-C'
  91Hua  'W. Huang, Metall. Trans. A, 22A, 1911-20(1991); Fe-Mn-V-C'
  92Lee  'B.-J. Lee, Calphad, 16, 121-49(1992); Cr-C'
  93Lee2 'B.-J. Lee, Metall. Trans. A, 24A, 1017-25 (1993); Cr-Fe-Mn-C'
  09Dju  'D. Djurovic, low T interval for diamond C and alpha-Mn, 2009' 
  10Dju  'D. Djurovic, B. Hallstedt, J. von Appen, R. Dronskowski,
          Calphad, 34, 279-85(2010); Mn-C'
  10Hal  'B. Hallstedt, D. Djurovic, J. von Appen, R. Dronskowski, A. Dick,
          F. Koermann, T. Hickel, J. Neugebauer,
          Calphad, 34, 129-33(2010); Fe-C'
  11Dju  'D. Djurovic, B. Hallstedt, J. von Appen, R. Dronskowski,
          Calphad, submitted, 2011; Fe-Mn-C'
!
