    
ELEMENT /-   ELECTRON_GAS     0.0000E+00  0.0000E+00  0.0000E+00!
ELEMENT VA   VACUUM           0.0000E+00  0.0000E+00  0.0000E+00!
ELEMENT N    1/2_MOLE_N2(G)   1.4007E+01  4.3350E+03  9.5751E+01!
ELEMENT TI   HCP_A3           4.7880E+01  4.8100E+03  3.0648E+01!
ELEMENT ZR   HCP_A3           9.1224E+01  5.5663E+03  3.9181E+01!

SPECIES N1           N!
SPECIES N1TI1        N1TI1!
SPECIES N1ZR1        N1ZR1!
SPECIES N2           N2!
SPECIES N3           N3!
SPECIES TI1          TI!
SPECIES TI2          TI2!
SPECIES ZR1          ZR!
SPECIES ZR2          ZR2!

FUNCTION F7307T 298.15 -8000.12556-8.70675998*T-27.22332*T*LN(T)
-.00125991751*T**2-5.39380987E-07*T**3-38326.6953*T**(-1); 800 Y
-10569.646+2.88478195*T-28.4238396*T*LN(T)-.00318927504*T**2
+2.06637992E-07*T**3+416969.062*T**(-1); 2200 Y
-22468.6316+71.9270743*T-37.5501404*T*LN(T)-6.15899489E-06*T**2
-4.22547005E-09*T**3+3427512*T**(-1); 6000 N !
FUNCTION GLIQTI 298.15 +4134.494+126.63427*T-23.9933*T*LN(T)
-.004777975*T**2+1.06716E-07*T**3+72636*T**(-1); 900 Y
+4382.601+126.00713*T-23.9887*T*LN(T)-.0042033*T**2-9.0876E-08*T**3
+42680*T**(-1); 1155 Y
+13103.253+59.9956*T-14.9466*T*LN(T)-.0081465*T**2+2.02715E-07*T**3
-1477660*T**(-1); 1300 Y
+369519.198-2554.0225*T+342.059267*T*LN(T)-.163409355*T**2
+1.2457117E-05*T**3-67034516*T**(-1); 1941 Y
-19887.066+298.7367*T-46.29*T*LN(T); 4000 N !
FUNCTION GHSERZR 130 -7827.595+125.64905*T-24.1618*T*LN(T)-.00437791*T**2
+34971*T**(-1); 2128 Y
-26085.921+262.724183*T-42.144*T*LN(T)-1.342896E+31*T**(-9); 6000 N !
FUNCTION GLIQZR 298.15 +GHSERZR+18147.69-9.080812*T+1.6275E-22*T**7; 2128 Y
-8281.26+253.812609*T-42.144*T*LN(T); 6000 N !
FUNCTION GHSERNN 298.15 -3750.675-9.45425*T-12.7819*T*LN(T)
-.00176686*T**2+2.681E-09*T**3-32374*T**(-1); 950 Y
-7358.85+17.2003*T-16.3699*T*LN(T)-6.5107E-04*T**2+3.0097E-08*T**3
+563070*T**(-1); 3350 Y
-16392.8+50.26*T-20.4695*T*LN(T)+2.39754E-04*T**2-8.333E-09*T**3
+4596375*T**(-1); 6000 N !
FUNCTION GLIQNN 298.15 +GHSERNN+29950+59.02*T; 6000 N !
FUNCTION GBCCTI 298.15 -1272.064+134.71418*T-25.5768*T*LN(T)
-6.63845E-04*T**2-2.78803E-07*T**3+7208*T**(-1); 1155 Y
+6667.385+105.366379*T-22.3771*T*LN(T)+.00121707*T**2-8.4534E-07*T**3
-2002750*T**(-1); 1941 Y
+26483.26-182.426471*T+19.0900905*T*LN(T)-.02200832*T**2
+1.228863E-06*T**3+1400501*T**(-1); 4000 N !
FUNCTION GBCCZR 298.15 -525.539+124.9457*T-25.607406*T*LN(T)
-3.40084E-04*T**2-9.729E-09*T**3+25233*T**(-1)-7.6143E-11*T**4; 2128 Y
-30705.955+264.284163*T-42.144*T*LN(T)+1.276058E+32*T**(-9); 6000 N !
FUNCTION GHSERTIN  298.15 -357904.75+330.49827*T-52.458723*T*LN(T)
-9.2840476E-04*T**2+871489.25*T**(-1)-2.4139721E+09*T**(-3); 6000 N !
FUNCTION GHSERTI   298.15 -8059.921+133.615208*T-23.9933*T*LN(T)
-.004777975*T**2+1.06716E-07*T**3+72636*T**(-1); 900 Y
-7811.815+132.988068*T-23.9887*T*LN(T)-.0042033*T**2-9.0876E-08*T**3
+42680*T**(-1); 1155 Y
+908.837+66.976538*T-14.9466*T*LN(T)-.0081465*T**2+2.02715E-07*T**3
-1477660*T**(-1); 1941 Y
-124526.786+638.806871*T-87.2182461*T*LN(T)+.008204849*T**2
-3.04747E-07*T**3+36699805*T**(-1); 4000 N !
FUNCTION GFCCZR 298.15 +GHSERZR+7600-.9*T; 6000 N !
FUNCTION GHSERNZR 298.15 -381821.182+278.178233*T-46.4202194*T*LN(T)
-.00352792791*T**2+1.33236681E-09*T**3+358416.094*T**(-1); 2000 Y
-324412.768-11.6192139*T-9.00032806*T*LN(T)-.0142983599*T**2
+5.79050986E-07*T**3-16048445*T**(-1); 2600 Y
-371959.131+237.46038*T-41.3140297*T*LN(T)-.00469480362*T**2
+5.0809381E-08*T**3-3201806*T**(-1); 3225 Y
-316831.81+344.900575*T-58.5760002*T*LN(T); 5000 N !
FUNCTION GASN1 298.15 +466446.153+2788.78662*T**(-1)-13.2660528*T
-20.8939295*T*LN(T)+8.4552092E-05*T**2-1.0018656E-08*T**3; 2950 Y
+481259.023-7559107.28*T**(-1)-52.4348889*T-16.3761342*T*LN(T)
-2.28373808E-04*T**2-2.78997209E-08*T**3; 6000 N !
FUNCTION GASN2 298.15 -8000.12601-38326.6952*T**(-1)-8.70687347*T
-27.2233215*T*LN(T)-.00125991746*T**2-5.39381057E-07*T**3; 800 Y
-10569.6452+416969.072*T**(-1)+2.88463409*T-28.4238366*T*LN(T)
-.00318927492*T**2+2.06637997E-07*T**3; 2200 Y
-22468.6452+3427511.88*T**(-1)+71.9269909*T-37.5501448*T*LN(T)
-6.15899444E-06*T**2-4.22547041E-09*T**3; 6000 N !
FUNCTION GASN3     298.15 +403075.636+55714.144*T**(-1)-14.3245228*T
-29.5595416*T*LN(T)-.02413122*T**2+3.6156036E-06*T**3; 800 Y
+388937.207+1536448.48*T**(-1)+158.809275*T-55.404528*T*LN(T)
-.0026570492*T**2+1.9365644E-07*T**3; 2000 Y
+380898.006+3336949.2*T**(-1)+210.207464*T-62.295576*T*LN(T)
+6.5726456E-06*T**2-7.868012E-10*T**3; 6000 N !
FUNCTION F16956T 298.15 +567720.641+85.6851189*T-38.69111*T*LN(T)
+.01152846*T**2-1.693255E-06*T**3+270638.8*T**(-1); 700 Y
+576834.093-14.7850514*T-24.06106*T*LN(T)+.001743641*T**2
-5.94312333E-07*T**3-748947.5*T**(-1); 1300 Y
+574685.474-34.7524557*T-20.46361*T*LN(T)-.002961084*T**2
+1.08391433E-07*T**3+526352.5*T**(-1); 2700 Y
+611588.852-150.697371*T-6.647343*T*LN(T)-.0046738955*T**2
+1.06833583E-07*T**3-15872340*T**(-1); 6600 Y
+485104.072+143.08182*T-40.68801*T*LN(T)-6.38357E-04*T**2
+1.79125333E-08*T**3+71496950*T**(-1); 10000 N !
FUNCTION F16975T 298.15 +886779.863-9.29107585*T-37.13672*T*LN(T)
-3.2039655E-04*T**2-4.30605167E-09*T**3+85422.15*T**(-1); 3600 Y
 +868133.758+14.4701785*T-39.33356*T*LN(T)-.001019669*T**2
+6.09799667E-08*T**3+14065805*T**(-1); 6000 N !
FUNCTION F16729T   298.15 +467609.96-25.7916835*T-23.45359*T*LN(T)
+.0026178525*T**2-4.83678833E-07*T**3-101456.95*T**(-1); 1800 Y
+492971.637-184.379175*T-2.247876*T*LN(T)-.005476885*T**2
+1.10024367E-07*T**3-5945505*T**(-1); 4500 Y
+364869.208+112.534909*T-36.55164*T*LN(T)-.0016270125*T**2
+3.69943667E-08*T**3+80422300*T**(-1); 10000 N !
FUNCTION F16743T 298.15 +804579.989-13.3244359*T-33.852*T*LN(T)
-.01680915*T**2+4.05913E-06*T**3+159805*T**(-1); 600 Y
+797116.458+109.508534*T-53.131*T*LN(T)+.00501905*T**2-5.1425E-07*T**3
+693380*T**(-1); 1500 Y
+796667.915+69.7367642*T-46.792*T*LN(T)-6.3645E-04*T**2
+1.78673333E-07*T**3+2125430*T**(-1); 3200 Y
+779355.318+192.57083*T-63.044*T*LN(T)+.00452695*T**2
-9.56883333E-08*T**3+2443585*T**(-1); 6000 N !
FUNCTION F13888T 298.15 +462541.812-39.7408584*T-26.55434*T*LN(T)
-.00920795*T**2+1.474184E-06*T**3+32740.96*T**(-1); 800 Y
+454624.274+54.7666042*T-40.59669*T*LN(T)+.0020964085*T**2
-2.72221333E-07*T**3+884792.5*T**(-1); 3300 Y
+581650.407-431.216401*T+19.76267*T*LN(T)-.010792005*T**2
+2.48554833E-07*T**3-49877130*T**(-1); 6000 N !
FUNCTION F13912T 298.15 +703577.071-32.575978*T-29.24152*T*LN(T)
-.00785065*T**2+1.3910475E-06*T**3+67446.7*T**(-1); 800 Y
+699707.231+20.4173598*T-37.31572*T*LN(T)-1.7143395E-04*T**2
+6.13552167E-10*T**3+427996*T**(-1); 6000 N !
FUNCTION FT 298.15 +GHSERNZR+14741+.152*T-.011*T*LN(T); 6000 N !


TYPE_DEFINITION % SEQ *!
DEFINE_SYSTEM_DEFAULT ELEMENT 2 !
DEFAULT_COMMAND DEF_SYS_ELEMENT VA /- !

PHASE GAS:G %  1  1.0  !
CONSTITUENT GAS:G :N1,N1TI1,N1ZR1,N2,N3,TI1,TI2,ZR1,ZR2 :  !
PARAMETER G(GAS,N1;0) 298.15 +GASN1+R*T*LN(1E-05*P); 6000 N  !
PARAMETER G(GAS,N1TI1;0) 298.15 +F13888T+R*T*LN(1E-05*P); 6000 N  !
PARAMETER G(GAS,N1ZR1;0) 298.15 +F13912T+R*T*LN(1E-05*P); 6000 N  !
PARAMETER G(GAS,N2;0) 298.15 +GASN2+R*T*LN(1E-05*P); 6000 N  !
PARAMETER G(GAS,N3;0) 298.15 +GASN3+R*T*LN(1E-05*P); 6000 N  !
PARAMETER G(GAS,TI1;0) 298.15 +F16729T+R*T*LN(1E-05*P); 6000 N  !
PARAMETER G(GAS,TI2;0) 298.15 +F16743T+R*T*LN(1E-05*P); 6000 N  !
PARAMETER G(GAS,ZR1;0) 298.15 +F16956T+R*T*LN(1E-05*P); 6000 N  !
PARAMETER G(GAS,ZR2;0) 298.15 +F16975T+R*T*LN(1E-05*P); 6000 N  !

PHASE LIQUID  %  1  1.0  !
CONSTITUENT LIQUID  :N,TI,ZR :  !
PARAMETER G(LIQUID,N;0) 298.15 +GLIQNN; 6000 N  !
PARAMETER G(LIQUID,TI;0) 298.15 +GLIQTI; 4000 N  !
PARAMETER G(LIQUID,ZR;0) 298.15 +GLIQZR; 6000 N  !
PARAMETER G(LIQUID,N,ZR;0) 298.15 -427557; 6000 N  !
PARAMETER G(LIQUID,N,ZR;1) 298.15 -153838; 6000 N  !
PARAMETER G(LIQUID,N,TI;0) 298.15 -376736; 6000 N  !
PARAMETER G(LIQUID,N,TI;1) 298.15 -102480; 6000 N  !
PARAMETER G(LIQUID,TI,ZR;0) 298.15 -20278+8.427*T; 6000 N  !

PHASE BCC_A2  %  2 1   3 !
CONSTITUENT BCC_A2  :TI,ZR : N,VA :  !
PARAMETER G(BCC_A2,TI:N;0) 298.15 +GHSERTIN+310935+31.466*T
+2*GHSERNN+59900+118.04*T; 6000 N  !
PARAMETER G(BCC_A2,ZR:N;0) 298.15 +FT+2*GHSERNN+632009
+321.432*T; 6000 N  !
PARAMETER G(BCC_A2,TI:VA;0) 298.15 +GBCCTI; 4000 N  !
PARAMETER G(BCC_A2,ZR:VA;0) 298.15 +GBCCZR; 6000 N  !
PARAMETER G(BCC_A2,TI:N,VA;0) 298.15 -984397; 6000 N  !
PARAMETER G(BCC_A2,ZR:N,VA;0) 298.15 -1508137; 6000 N  !
PARAMETER G(BCC_A2,TI,ZR:VA;0) 298.15 -4100+3.47*T; 6000 N  !

PHASE FCC_A1  %  2 1   1 !
CONSTITUENT FCC_A1  :TI,ZR : N,VA :  !
PARAMETER G(FCC_A1,TI:N;0) 298.15 +GHSERTIN; 6000 N  !
PARAMETER G(FCC_A1,ZR:N;0) 298.15 +FT; 6000 N  !
PARAMETER G(FCC_A1,TI:VA;0) 298.15 +6000-.1*T+GHSERTI; 4000 N  !
PARAMETER G(FCC_A1,ZR:VA;0) 298.15 +GFCCZR; 6000 N  !
PARAMETER G(FCC_A1,TI,ZR:N;0) 298.15 +26027; 6000 N  !
PARAMETER G(FCC_A1,TI,ZR:N;1) 298.15 +8468; 6000 N  !
PARAMETER G(FCC_A1,TI:N,VA;0) 298.15 -47739; 6000 N  !
PARAMETER G(FCC_A1,TI:N,VA;1) 298.15 -9877; 6000 N  !
PARAMETER G(FCC_A1,ZR:N,VA;0) 298.15 +19575; 6000 N  !

PHASE HCP_A3  %  2 1   .5 !
CONSTITUENT HCP_A3  :TI,ZR : N,VA :  !
PARAMETER G(HCP_A3,TI:N;0) 298.15 +.5*GHSERTI+.5*GHSERTIN
-9888.08-3.0822*T; 6000 N  !
PARAMETER G(HCP_A3,ZR:N;0) 298.15 +GHSERZR+.5*GHSERNN
-150903+43.853*T; 6000 N  !
PARAMETER G(HCP_A3,TI:VA;0) 298.15 +GHSERTI; 4000 N  !
PARAMETER G(HCP_A3,ZR:VA;0) 298.15 +GHSERZR; 6000 N  !
PARAMETER G(HCP_A3,TI:N,VA;0)  298.15 -4743; 6000 N  !
PARAMETER G(HCP_A3,ZR:N,VA;0)  298.15 -139011+45.439*T; 6000 N  !
PARAMETER G(HCP_A3,ZR:N,VA;1)  298.15 -41938; 6000 N  !
PARAMETER G(HCP_A3,TI,ZR:VA;0) 298.15 +5707-2.403*T; 6000 N  !

PHASE TI2N  %  2 2   1 !
CONSTITUENT TI2N  :TI,ZR : N :  !
PARAMETER G(TI2N,TI:N;0) 298.15 +GHSERTI+GHSERTIN
-63220.14+22.420085*T; 6000 N  !
PARAMETER G(TI2N,ZR:N;0) 298.15 +2*GHSERZR+GHSERNN; 6000 N  !

LIST_OF_REFERENCES
NUMBER  SOURCE
 ! 

