$****************************************************************************
$                   File name: C-NB-MO.TDB
$                 Compiled by by Cong Zhang
$           State Key Laboratory of Powder Metallurgy
$             Central South University, Changsha
$                  Last update: July 06,2015
$****************************************************************************
$                        
 ELEMENT /-   ELECTRON_GAS              0.0000E+00  0.0000E+00  0.0000E+00!
 ELEMENT VA   VACUUM                    0.0000E+00  0.0000E+00  0.0000E+00!
 ELEMENT C    GRAPHITE                  1.2011E+01  1.0540E+03  5.7423E+00!
 ELEMENT MO   BCC_A2                    9.5940E+01  4.5890E+03  2.8560E+01!
 ELEMENT NB   BCC_A2                    9.2906E+01  5.2200E+03  3.6270E+01!


 FUNCTION GHSERNB    2.98140E+02  -8519.353+142.045475*T-26.4711*T*LN(T)
     +2.03475E-04*T**2-3.5012E-07*T**3+93399*T**(-1);  2.75000E+03  Y
      -37669.3+271.720843*T-41.77*T*LN(T)+1.528238E+32*T**(-9);  6.00000E+03 
      N !
 FUNCTION GLIQNB     2.98140E+02  +GHSERNB#+29781.555-10.816418*T
     -3.06098E-23*T**7;  2.75000E+03  Y
      -7499.398+260.756148*T-41.77*T*LN(T);  6.00000E+03  N !
 FUNCTION GFCCNB     2.98150E+02  +GHSERNB#+13500+1.7*T;   6.00000E+03   N !
 FUNCTION GHCPNB     2.98150E+02  +GHSERNB#+10000+2.4*T;   6.00000E+03   N !
 FUNCTION GHEXTNB    2.98150E+02  -8519.35+142.048*T-26.4711*T*LN(T)
     +2.03475E-04*T**2-3.50119E-07*T**3+93398.8*T**(-1);   6.00000E+03   N !
 FUNCTION GHSERMO    2.98140E+02  -7746.302+131.9197*T-23.56414*T*LN(T)
     -.003443396*T**2+5.66283E-07*T**3+65812*T**(-1)-1.30927E-10*T**4;  
     2.89600E+03  Y
      -30556.41+283.559746*T-42.63829*T*LN(T)-4.849315E+33*T**(-9);  
     5.00000E+03  N !
 FUNCTION GLIQMO     2.98140E+02  +34085.045+117.224788*T-23.56414*T*LN(T)
     -.003443396*T**2+5.66283E-07*T**3+65812*T**(-1)-1.30927E-10*T**4
     +4.24519E-22*T**7;  2.89600E+03  Y
      +3538.963+271.6697*T-42.63829*T*LN(T);  5.00000E+03  N !
 FUNCTION GFCCMO     2.98140E+02  +7453.698+132.5497*T-23.56414*T*LN(T)
     -.003443396*T**2+5.66283E-07*T**3+65812*T**(-1)-1.30927E-10*T**4;  
     2.89600E+03  Y
      -15356.41+284.189746*T-42.63829*T*LN(T)-4.849315E+33*T**(-9);  
     5.00000E+03  N !
 FUNCTION GHCPMO     2.98140E+02  +3803.698+131.9197*T-23.56414*T*LN(T)
     -.003443396*T**2+5.66283E-07*T**3+65812*T**(-1)-1.30927E-10*T**4;  
     2.89600E+03  Y
      -19006.41+283.559746*T-42.63829*T*LN(T)-4.849315E+33*T**(-9);  
     5.00000E+03  N !
 FUNCTION GHSERCC    2.98150E+02  -17368.441+170.73*T-24.3*T*LN(T)
     -4.723E-04*T**2+2562600*T**(-1)-2.643E+08*T**(-2)+1.2E+10*T**(-3);   
     6.00000E+03   N !
 FUNCTION GLIQCC     2.98150E+02  +GHSERCC#+117369-24.63*T;   6.00000E+03   
     N !
 FUNCTION GFNBC      2.98150E+02  -153054+563374*T**(-1)+283.912*T
     -46.34274*T*LN(T)-.0029287*T**2-1.02788144E+09*T**(-3);   6.00000E+03   
     N !
 FUNCTION UN_ASS 298.15 0; 300 N !
 
 TYPE_DEFINITION % SEQ *!
 DEFINE_SYSTEM_DEFAULT ELEMENT 2 !
 DEFAULT_COMMAND DEF_SYS_ELEMENT VA /- !


 PHASE BCC_A2  %  2 1   3 !
    CONSTITUENT BCC_A2  :MO,NB : C,VA :  !

   PARAMETER G(BCC_A2,MO:C;0)  2.98150E+02  +GHSERMO#+3*GHSERCC#+331000-75*T;
     6.00000E+03   N REF0 !
   PARAMETER G(BCC_A2,NB:C;0)  2.98150E+02  +520879-70.807*T+GHSERNB#
  +3*GHSERCC#;   6.00000E+03   N REF0 !
   PARAMETER G(BCC_A2,MO:VA;0)  2.98150E+02  +GHSERMO#;   6.00000E+03   N 
  REF0 !
   PARAMETER G(BCC_A2,NB:VA;0)  2.98150E+02  +GHSERNB#;   6.00000E+03   N 
  REF0 !
   PARAMETER G(BCC_A2,NB:C,VA;0)  2.98150E+02  -650000+24.5*T;   6.00000E+03 
    N REF0 !
   PARAMETER G(BCC_A2,MO,NB:VA;0)  2.98150E+02  -68202.6+29.85596*T;   
  6.00000E+03   N REF0 !
   PARAMETER G(BCC_A2,MO,NB:VA;1)  2.98150E+02  8201.3;   6.00000E+03   N 
  REF0 !
   PARAMETER G(BCC_A2,MO,NB:C;0)  2.98150E+02  500000+200*T;   6.00000E+03 N !


 PHASE FCC_A1  %  2 1   1 !
    CONSTITUENT FCC_A1  :MO,NB : C,VA :  !

   PARAMETER G(FCC_A1,MO:C;0)  2.98150E+02  +GHSERMO#+GHSERCC#-7500-8.3*T
  -750000*T**(-1);   6.00000E+03   N REF0 !
   PARAMETER G(FCC_A1,NB:C;0)  2.98150E+02  +GFNBC#;   6.00000E+03   N REF0 !
   PARAMETER G(FCC_A1,MO:VA;0)  2.98150E+02  +GFCCMO#;   6.00000E+03   N 
  REF0 !
   PARAMETER G(FCC_A1,NB:VA;0)  2.98150E+02  +13500+1.7*T+GHEXTNB#;   
  6.00000E+03   N REF0 !
   PARAMETER G(FCC_A1,MO,NB:C;0)  2.98150E+02  -84005.09+29.061*T;
   6.00000E+03  N !
   PARAMETER G(FCC_A1,MO,NB:C;1)  2.98150E+02  +153432.08-39.012*T;
   6.00000E+03     N REF0 !
   PARAMETER G(FCC_A1,MO,NB:C;2)  2.98150E+02  -6461.64;  6.00000E+03   N  !
   PARAMETER G(FCC_A1,MO,NB:C,VA;1) 2.98150E+02  -200000; 6.00000E+03 N REF0 !
   PARAMETER G(FCC_A1,MO,NB:C,VA;2) 2.98150E+02  -200000; 6.00000E+03 N REF0 !
   PARAMETER G(FCC_A1,MO:C,VA;0)  2.98150E+02  -41300;   6.00000E+03   N 
  REF0 !
   PARAMETER G(FCC_A1,NB:C,VA;0)  2.98150E+02  -95006+18.92*T;   6.00000E+03 
    N REF0 !
   PARAMETER G(FCC_A1,NB:C,VA;2)  2.98150E+02  -61342+25.207*T;   
  6.00000E+03   N REF0 !


 PHASE GRAPHITE  %  1  1.0  !
    CONSTITUENT GRAPHITE  :C :  !

   PARAMETER G(GRAPHITE,C;0)  2.98150E+02  +GHSERCC#;   6.00000E+03   N REF0 !


 PHASE HCP_A3  %  2 1   .5 !
    CONSTITUENT HCP_A3  :MO,NB : C,VA :  !

   PARAMETER G(HCP_A3,MO:C;0)  2.98150E+02  +GHSERMO#+.5*GHSERCC#-24150
  -3.625*T-163000*T**(-1);   6.00000E+03   N REF0 !
   PARAMETER G(HCP_A3,NB:C;0)  2.98150E+02  -103729+252376*T**(-1)+206.204*T
  -34.986618*T*LN(T)-.002897*T**2-58298590*T**(-3);   6.00000E+03   N REF0 !
   PARAMETER G(HCP_A3,MO:VA;0)  2.98150E+02  +GHCPMO#;   6.00000E+03   N 
  REF0 !
   PARAMETER G(HCP_A3,NB:VA;0)  2.98150E+02  +10000+2.4*T+GHEXTNB#;   
  6.00000E+03   N REF0 !
   PARAMETER G(HCP_A3,MO,NB:C;0)  2.98150E+02  -3348;   6.00000E+03     N !
   PARAMETER G(HCP_A3,MO,NB:C;1)  2.98150E+02  -15187.77-8.966*T;
   6.00000E+03     N REF0 !
   PARAMETER G(HCP_A3,MO,NB:C;2)  2.98150E+02  -104585.7+42.823*T; 6000 N !
   PARAMETER G(HCP_A3,MO,NB:C,VA;0)  2.98150E+02  +20000;  6.00000E+03   N !
   PARAMETER G(HCP_A3,MO:C,VA;0)  2.98150E+02  4150;   6.00000E+03   N REF0 !
   PARAMETER G(HCP_A3,NB:C,VA;0)  2.98150E+02  +13544-4.66*T;   6.00000E+03  
   N REF0 !


 PHASE LIQUID  %  1  1.0  !
    CONSTITUENT LIQUID  :C,MO,NB :  !

   PARAMETER G(LIQUID,C;0)  2.98150E+02  +GLIQCC#;   6.00000E+03   N REF0 !
   PARAMETER G(LIQUID,MO;0)  2.98150E+02  +GLIQMO#;   6.00000E+03   N REF0 !
   PARAMETER G(LIQUID,NB;0)  2.98150E+02  +GLIQNB#;   6.00000E+03   N REF0 !
   PARAMETER G(LIQUID,C,MO;0)  2.98150E+02  -217800+38.41*T;   6.00000E+03   
  N REF0 !
   PARAMETER G(LIQUID,C,MO;1)  2.98150E+02  30000;   6.00000E+03   N REF0 !
   PARAMETER G(LIQUID,C,MO;2)  2.98150E+02  47000;   6.00000E+03   N REF0 !
   PARAMETER G(LIQUID,C,MO,NB;0)  2.98150E+02  -904983.51+150*T;
   6.00000E+03   N    !
   PARAMETER G(LIQUID,C,MO,NB;1)  2.98150E+02  -554680.05+150*T;
   6.00000E+03   N   !
   PARAMETER G(LIQUID,C,MO,NB;2)  2.98150E+02  228894.03+41.142*T;
   6.00000E+03   N !
   PARAMETER G(LIQUID,C,NB;0)  2.98150E+02  -317748+38.851*T;   6.00000E+03  
   N REF0 !
   PARAMETER G(LIQUID,C,NB;1)  2.98150E+02  13125;   6.00000E+03   N REF0 !
   PARAMETER G(LIQUID,C,NB;2)  2.98150E+02  55982;   6.00000E+03   N REF0 !
   PARAMETER G(LIQUID,MO,NB;0)  2.98150E+02  15253.7;   6.00000E+03   N REF0 !
   PARAMETER G(LIQUID,MO,NB;1)  2.98150E+02  10594.2;   6.00000E+03   N REF0 !


 PHASE MC_ETA  %  2 1   1 !
    CONSTITUENT MC_ETA  :MO,NB : C,VA :  !

   PARAMETER G(MC_ETA,MO:C;0)  2.98150E+02  +GHSERMO#+GHSERCC#-9100-5.35*T
  -750000*T**(-1);   6.00000E+03   N REF0 !
   PARAMETER G(MC_ETA,NB:C;0)  2.98150E+02  +GHSERNB#+GHSERCC#+15000;  
   6.00000E+03   N REF0 !
   PARAMETER G(MC_ETA,MO:VA;0)  2.98150E+02  +GHSERMO#+15200+0.63*T;   
  6.00000E+03   N REF0 !
   PARAMETER G(MC_ETA,NB:VA;0)  2.98150E+02  +GHSERNB#+15200+0.63*T;   
  6.00000E+03   N REF0 !
   PARAMETER G(MC_ETA,MO,NB:C;0)  2.98150E+02  -204000;   6.00000E+03   
  N REF0 !
   PARAMETER G(MC_ETA,MO:C,VA;0)  2.98150E+02  -59500;   6.00000E+03   N 
  REF0 !


 PHASE MC_SHP  %  2 1   1 !
    CONSTITUENT MC_SHP  :C : MO :  !

   PARAMETER G(MC_SHP,C:MO;0)  2.98150E+02  +GHSERMO#+GHSERCC#-32983+2.5*T;  
   6.00000E+03   N REF0 !
$
 DATABASE-INFO 'FOR THE C-NB-MO SYSTEM' !
