
$ Database file written on December 04, 2006
$ From database: USER   
$ Hai-Lin Chen

 ELEMENT /-   ELECTRON_GAS              0.0000E+00  0.0000E+00  0.0000E+00!
 ELEMENT VA   VACUUM                    0.0000E+00  0.0000E+00  0.0000E+00!
 ELEMENT AL   FCC_A1                    2.6982E+01  4.5773E+03  2.8322E+01!
 ELEMENT CU   FCC_A1                    6.3546E+01  5.0041E+03  3.3150E+01!
 ELEMENT FE   BCC_A2                    5.5847E+01  4.4890E+03  2.7280E+01!

 FUNCT GHSERAL    298.15  -7976.15+137.093038*T-24.3671976*T*LN(T)
     -.001884662*T**2-8.77664E-07*T**3+74092*T**(-1);  7.00000E+02  Y
      -11276.24+223.048446*T-38.5844296*T*LN(T)+.018531982*T**2
     -5.764227E-06*T**3+74092*T**(-1);  9.33470E+02  Y
      -11278.378+188.684153*T-31.748192*T*LN(T)-1.230524E+28*T**(-9);  
     2.90000E+03  N !
 FUNCT GHSERCU    298.15  -7770.458+130.485235*T-24.112392*T*LN(T)
     -.00265684*T**2+1.29223E-07*T**3+52478*T**(-1);  1.35777E+03  Y
      -13542.026+183.803828*T-31.38*T*LN(T)+3.64167E+29*T**(-9);  
     3.20000E+03  N !
 FUNCT GHSERFE    298.15  +1225.7+124.134*T-23.5143*T*LN(T)
     -.00439752*T**2-5.8927E-08*T**3+77359*T**(-1);  1.81100E+03  Y
      -25383.581+299.31255*T-46*T*LN(T)+2.29603E+31*T**(-9);  6000  N !

 FUNCT GLIQAL     298.15  +11005.029-11.841867*T+7.934E-20*T**7
     +GHSERAL#;  9.33470E+02  Y
      +10482.382-11.253974*T+1.231E+28*T**(-9)+GHSERAL#;  6000  N !
 FUNCT GLIQCU     298.15  +5194.277+120.973331*T-24.112392*T*LN(T)
     -.00265684*T**2+1.29223E-07*T**3+52478*T**(-1)-5.8489E-21*T**7;  
     1.35777E+03  Y
      -46.545+173.881484*T-31.38*T*LN(T);  3.20000E+03  N !
 FUNCT GLIQFE     298.15  +12040.17-6.55843*T+GHSERFE#
     -3.67516E-21*T**7;  1.81100E+03  Y
      -10838.83+291.302*T-46*T*LN(T);  6000  N !
 FUNCT GBCCAL     298.15  +10083-4.813*T+GHSERAL#;   6000   N !
 FUNCT GHCPAL     298.15  +5481-1.8*T+GHSERAL#;      6000   N !
 FUNCT GBCCCU     298.15  +4017-1.255*T+GHSERCU#;    6000   N !
 FUNCT GHCPCU     298.15  +600+.2*T+GHSERCU#;        6000   N !
 FUNCT GFCCFE     298.15  -1462.4+8.282*T-1.15*T*LN(T)+6.4E-04*T**2
     +GHSERFE#;  1.81100E+03  Y
      -27098.266+300.25256*T-46*T*LN(T)+2.78854E+31*T**(-9);  6000 N !

$ L12
 FUNCT U1ALFE     298.15  -7958.19141+2.4926037*T;   6000   N !

$ A2/B2
 FUNCT GB2ALVA    298.15  +10000-T;               6000   N !
 FUNCT LB2ALVA    298.15  +150000;                6000   N !
 FUNCT GB2ALFE    298.15  -7150.04;               6000   N !
 FUNCT L0ALFE     298.15  -30740+7.9972*T;        6000   N !
 FUNCT L1ALFE     298.15  +386.15;                6000   N !

 TYPE_DEFINITION % SEQ *!
 DEFINE_SYSTEM_DEFAULT ELEMENT 2 !
 DEFAULT_COMMAND DEF_SYS_ELEMENT VA /- !

 TYPE_DEFINITION B GES A_P_D BCC_A2 MAGNETIC -1.0 0.40 !
 TYPE_DEFINITION F GES A_P_D FCC_A1 MAGNETIC -3.0 0.28 !

 TYPE_DEFINITION O GES A_P_D BCC_B2 DIS_PART BCC_A2,,,!
 TYPE_DEFINITION D GES A_P_D L12 DIS_PART FCC_A1,,,!

$ TYPE_DEFINITION W GES A_P_D BCC_B2 C_S 2 FE:AL:VA !
$ TYPE_DEFINITION M GES A_P_D L12 C_S 2 CU:CU:VA !

$ TYPE_DEFINITION M IF(CU) THEN GES A_P_D L12 MAJ 1 CU:CU:VA !
$ TYPE_DEFINITION M IF(FE) THEN GES A_P_D L12 MAJ 2 FE:FE:VA ! 

$ TYPE_DEFINITION M IF(CU AND FE) THEN GES A_P_D L12 MAJ 1 CU:CU:VA !
$ TYPE_DEFINITION M IF(CU AND FE) THEN GES A_P_D L12 MAJ 2 FE:FE:VA !

$ *************************************************************
$ Solution phases 
$ --- Liquid ---

 PHASE LIQUID  %  1  1.0  !
 CONST LIQUID  :AL,CU,FE :  !
 PARAM G(LIQUID,AL;0)  298.15  +GLIQAL#;   6000   N !
 PARAM G(LIQUID,CU;0)  298.15  +5194.277+120.973331*T
  -24.112392*T*LN(T)-.00265684*T**2+1.29223E-07*T**3+52478*T**(-1)
  -5.8489E-21*T**7;  1.35777E+03  Y
   -46.545+173.881484*T-31.38*T*LN(T);  3.20000E+03  N !
 PARAM G(LIQUID,FE;0)  298.15  +12040.17-6.55843*T
  -3.67516E-21*T**7+GHSERFE#;  1.81100E+03  Y
   +14544.751-8.01055*T+GHSERFE#-2.29603E+31*T**(-9);  6000  N !
 PARAM G(LIQUID,AL,CU;0)  298.15  -66622+8.1*T;             6000   N !
 PARAM G(LIQUID,AL,CU;1)  298.15  +46800-90.8*T+10*T*LN(T); 6000   N !
 PARAM G(LIQUID,AL,CU;2)  298.15  -2812;                    6000   N !
 PARAM G(LIQUID,AL,FE;0)  298.15  -91976.5+22.1314*T;       6000   N !
 PARAM G(LIQUID,AL,FE;1)  298.15  -5672.58+4.8728*T;        6000   N !
 PARAM G(LIQUID,AL,FE;2)  298.15  +121.9;                   6000   N !
 PARAM G(LIQUID,CU,FE;0)  298.15  +36088-2.32968*T;         6000   N !
 PARAM G(LIQUID,CU,FE;1)  298.15  +324.53-.0327*T;          6000   N !
 PARAM G(LIQUID,CU,FE;2)  298.15  +10355.4-3.60297*T;       6000   N !

$ --- Bcc_A2 -----------------------------------------------------

 PHASE BCC_A2  %B  2 1   3 !
 CONST BCC_A2  :AL,CU,FE%,VA : VA% :  !

 PARAM G(BCC_A2,AL:VA;0)     298.15  +GBCCAL#;   6000   N !
 PARAM G(BCC_A2,CU:VA;0)     298.15  +GBCCCU#;   6000   N !
 PARAM G(BCC_A2,FE:VA;0)     298.15  +GHSERFE#;  6000   N !
 PARAM TC(BCC_A2,FE:VA;0)    298.15  +1043;      6000   N !
 PARAM BMAGN(BCC_A2,FE:VA;0) 298.15  +2.22;      6000   N !
 PARAM G(BCC_A2,VA:VA;0)     298.15  +0;         6000   N !

 PARAM G(BCC_A2,AL,VA:VA;0)  298.15  +GB2ALVA+LB2ALVA; 6000 N !
 PARAM G(BCC_A2,CU,VA:VA;0)  298.15  +100000;          6000 N !
 PARAM G(BCC_A2,FE,VA:VA;0)  298.15  +150000;          6000 N !

 PARAM G(BCC_A2,AL,CU:VA;0)  298.15  -73554+4*T;       6000 N !
 PARAM G(BCC_A2,AL,CU:VA;1)  298.15  +51500-11.84*T;   6000 N !

 PARAM G(BCC_A2,AL,FE:VA;0)  298.15  +4*L0ALFE#;       6000 N !
 PARAM G(BCC_A2,AL,FE:VA;1)  298.15  +8*L1ALFE#;       6000 N !
 PARAM TC(BCC_A2,AL,FE:VA;1) 298.15  +504;             6000 N !

 PARAM G(BCC_A2,CU,FE:VA;0)  298.15  +39258-4.14983*T; 6000 N !

$ --- Bcc_B2 ----------------------------------------------------- 

 PHASE BCC_B2  %OW  3 .5   .5   3 !
 CONST BCC_B2  : AL,CU,FE%,VA : AL,CU,FE%,VA : VA% :  !

 PARAM G(BCC_B2,AL:AL:VA;0) 298.15 0; 6000 N !
 PARAM G(BCC_B2,CU:CU:VA;0) 298.15 0; 6000 N !
 PARAM G(BCC_B2,FE:FE:VA;0) 298.15 0; 6000 N !
 PARAM G(BCC_B2,VA:VA:VA;0) 298.15 0; 6000 N !

 PARAM G(BCC_B2,AL:VA:VA;0) 298.15 +.5*GB2ALVA#-.5*LB2ALVA#; 6000 N !
 PARAM G(BCC_B2,VA:AL:VA;0) 298.15 +.5*GB2ALVA#-.5*LB2ALVA#; 6000 N !
 PARAM G(BCC_B2,CU:VA:VA;0) 298.15 0; 6000 N !
 PARAM G(BCC_B2,VA:CU:VA;0) 298.15 0; 6000 N !
 PARAM G(BCC_B2,VA:FE:VA;0) 298.15 0; 6000 N !
 PARAM G(BCC_B2,FE:VA:VA;0) 298.15 0; 6000 N !

 PARAM G(BCC_B2,CU:AL:VA;0) 298.15 -10000; 6000 N !
 PARAM G(BCC_B2,AL:CU:VA;0) 298.15 -10000; 6000 N !

 PARAM G(BCC_B2,FE:AL:VA;0) 298.15 +2*GB2ALFE#; 6000 N !
 PARAM G(BCC_B2,AL:FE:VA;0) 298.15 +2*GB2ALFE#; 6000 N !

 PARAM G(BCC_B2,FE:CU:VA;0) 298.15 0; 6000 N !
 PARAM G(BCC_B2,CU:FE:VA;0) 298.15 0; 6000 N !

$ --- Fcc_A1 ----------------------------------------------------- 

 PHASE FCC_A1  %F  2 1   1 !
 CONST FCC_A1  :AL%,CU%,FE% : VA% :  !
 PARAM G(FCC_A1,AL:VA;0)  298.15  +GHSERAL#;   6000   N !
 PARAM G(FCC_A1,CU:VA;0)  298.15  +GHSERCU#;   6000   N !
 PARAM G(FCC_A1,FE:VA;0)  298.15  -236.7+132.416*T
  -24.6643*T*LN(T)-.00375752*T**2-5.8927E-08*T**3+77359*T**(-1);  
  1.81100E+03  Y
  -27097.396+300.25256*T-46*T*LN(T)+2.78854E+31*T**(-9); 6000   N !
 PARAM TC(FCC_A1,FE:VA;0)    298.15  -201;               6000   N !
 PARAM BMAGN(FCC_A1,FE:VA;0) 298.15  -2.1;               6000   N !
 PARAM G(FCC_A1,AL,CU:VA;0)  298.15  -53520+2*T;         6000   N !
 PARAM G(FCC_A1,AL,CU:VA;1)  298.15  +38590-2*T;         6000   N !
 PARAM G(FCC_A1,AL,CU:VA;2)  298.15  +1170;              6000   N !
 PARAM G(FCC_A1,AL,FE:VA;0)  298.15  -76066.1+18.6758*T; 6000   N !
 PARAM G(FCC_A1,AL,FE:VA;1)  298.15  +21167.4+1.3398*T;  6000   N !
 PARAM G(FCC_A1,CU,FE:VA;0)  298.15  +48232.5-8.60954*T; 6000   N !
 PARAM G(FCC_A1,CU,FE:VA;1)  298.15  +8861.88-5.28975*T; 6000   N !

$ --- L12 ----------------------------------------------------- 

 PHASE L12 %DM  3  0.75 0.25 1.0  !
 CONST L12 :AL,CU,FE:AL,CU,FE:VA: !
$ Al-Fe
 PARAM G(L12,FE:AL:VA;0)     298.15  +3*U1ALFE#;   6000 N !
 PARAM G(L12,AL:FE:VA;0)     298.15  +3*U1ALFE#;   6000 N !
 PARAM G(L12,AL,FE:AL:VA;0)  298.15  +6*U1ALFE#;   6000 N !
 PARAM G(L12,AL,FE:FE:VA;0)  298.15  +6*U1ALFE#;   6000 N !
$ Cu-Fe
 PARAM G(L12,CU,FE:CU:VA;0)  298.15  -22800;       6000 N !
 PARAM G(L12,CU,FE:FE:VA;0)  298.15  -22800;       6000 N !
 PARAM G(L12,CU:CU,FE:VA;0)  298.15  -7600;        6000 N !
 PARAM G(L12,FE:CU,FE:VA;0)  298.15  -7600;        6000 N !
$ Al-Cu

$ *************************************************************
$ the Al-Fe binary system

 PHASE AL13FE4  %  3 .6275   .235   .1375 !
$CONST AL13FE4  :AL%,CU:FE%,CU:AL,VA:  !
 CONST AL13FE4  :AL%,CU:FE:AL,VA:  !

 PARAM G(AL13FE4,AL:FE:AL;0)  298.15  -30814.4+7.44*T
  +.765*GHSERAL#+.235*GHSERFE#;    6000   N !
 PARAM G(AL13FE4,AL:FE:VA;0)  298.15  -27781.3+7.2566*T
  +.6275*GHSERAL#+.235*GHSERFE#;   6000   N !

 PHASE AL2FE  %  2 2   1 !
$CONST AL2FE  :AL:FE%,CU:  !
 CONST AL2FE  :AL%,CU:FE:  !
 PARAM G(AL2FE,AL:FE;0)  298.15  -99526+19.811*T+2*GHSERAL#
  +GHSERFE#;   6000   N !

 PHASE AL5FE2  %  2 5   2 !
$CONST AL5FE2  :AL:FE%,CU:  !
 CONST AL5FE2  :AL%,CU:FE:  !
 PARAM G(AL5FE2,AL:FE;0)  298.15  -228250+48.99503*T+5*GHSERAL#
  +2*GHSERFE#;   6000   N !

 PHASE AL5FE4  %  1  1.0  !
 CONST AL5FE4  :AL,FE:  !
 PARAM G(AL5FE4,AL;0)    298.15  +12178.9-4.813*T+GHSERAL#; 6000 N !
 PARAM G(AL5FE4,FE;0)    298.15  +5009.03+GHSERFE#;         6000 N !
 PARAM G(AL5FE4,AL,FE;0) 298.15  -131649+29.4833*T;         6000 N !
 PARAM G(AL5FE4,AL,FE;1) 298.15  -18619.5;                  6000 N !

$ *************************************************************
$ the Al-Cu binary system

 PHASE ALCU_DELTA  %  2 2   3 !
 CONST ALCU_DELTA  :AL : CU%,FE:  !
 PARAM G(ALCU_DELTA,AL:CU;0)  298.15  -106700+3*T+2*GHSERAL#
  +3*GHSERCU#;   6000   N !

 PHASE ALCU_EPSILON  %  2 1   1 !
 CONST ALCU_EPSILON  :AL%,CU : CU,FE :  !
 PARAM G(ALCU_EPSILON,AL:CU;0)   298.15  -36976+1.2*T+GHSERAL#
  +GHSERCU#;   6000   N !
 PARAM G(ALCU_EPSILON,CU:CU;0)   298.15  +2*GBCCCU#;   6000 N !
 PARAM G(ALCU_EPSILON,AL,CU:*;0) 298.15  +7600-24*T;   6000 N !
 PARAM G(ALCU_EPSILON,AL,CU:*;1) 298.15  -72000;       6000 N !

 PHASE ALCU_ETA  %  2 1   1 !
 CONST ALCU_ETA  :AL%,CU : CU%,FE :  !
 PARAM G(ALCU_ETA,AL:CU;0)    298.15  -40560+3.14*T+GHSERAL#
  +GHSERCU#;   6000   N !
 PARAM G(ALCU_ETA,CU:CU;0)    298.15  +2*GBCCCU#;    6000 N !
 PARAM G(ALCU_ETA,AL,CU:*;0)  298.15  -25740-20*T;   6000 N !

 PHASE ALCU_PRIME  %  2 2   1 !
 CONST ALCU_PRIME  :AL : CU :  !
 PARAM G(ALCU_PRIME,AL:CU;0)  298.15  -46500+6.5*T+2*GHSERAL#
  +GHSERCU#;   6000   N !

 PHASE ALCU_THETA  %  2 2   1 !
 CONST ALCU_THETA  :AL : AL,CU%,FE :  !
 PARAM G(ALCU_THETA,AL:AL;0)  298.15  +3*GBCCAL#;   6000 N !
 PARAM G(ALCU_THETA,AL:CU;0)  298.15  -47406+6.75*T+2*GHSERAL#
  +GHSERCU#;   6000   N !
 PARAM G(ALCU_THETA,AL:AL,CU;0)  298.15  2211;   6000   N !

 PHASE ALCU_ZETA  %  2 9   11 !
 CONST ALCU_ZETA  :AL: CU%,FE :  !
 PARAM G(ALCU_ZETA,AL:CU;0)  298.15  -420000+18*T+9*GHSERAL#
  +11*GHSERCU#;   6000   N !

 PHASE GAMMA_D83  %  3 4   1   8 !
 CONST GAMMA_D83  :AL% : AL,CU% : CU%,FE :  !
 PARAM G(GAMMA_D83,AL:AL:CU;0)  298.15  -300716+390*T-52*T*LN(T)
  +5*GHSERAL#+8*GHSERCU#;               6000   N !
 PARAM G(GAMMA_D83,AL:CU:CU;0)  298.15  -280501+379.6*T
  -52*T*LN(T)+4*GHSERAL#+9*GHSERCU#;    6000   N !

 PHASE GAMMA_H  %  3 4   1   8 !
 CONST GAMMA_H  :AL% : AL,CU% : CU%,FE :  !
 PARAM G(GAMMA_H,AL:AL:CU;0)  298.15  -219258-45.5*T+5*GHSERAL#
  +8*GHSERCU#;   6000   N !
 PARAM G(GAMMA_H,AL:CU:CU;0)  298.15  -200460-58.5*T+4*GHSERAL#
  +9*GHSERCU#;   6000   N !

$ *************************************************************
$ Ternary coefficients for solution phases!

 PARAM G(LIQUID,AL,CU,FE;0) 298.15 -2.46378886E+04+9.12034153E+00*T; 6000 N !
 PARAM G(LIQUID,AL,CU,FE;1) 298.15 -4.72623591E+04+1.13118607E+01*T; 6000 N !
 PARAM G(LIQUID,AL,CU,FE;2) 298.15 +0;   6000 N !

 PARAM G(FCC_A1,AL,CU,FE:VA;0) 298.15  +0; 6000 N !
 PARAM G(FCC_A1,AL,CU,FE:VA;1) 298.15  +0; 6000 N !
 PARAM G(FCC_A1,AL,CU,FE:VA;2) 298.15  +0; 6000 N !

 PARAM G(BCC_A2,AL,CU,FE:VA;0) 298.15 -2.67841207E+05+1.31456548E+02*T; 6000 N !
 PARAM G(BCC_A2,AL,CU,FE:VA;1) 298.15 -1.03924225E+05+6.99194286E+01*T; 6000 N !
 PARAM G(BCC_A2,AL,CU,FE:VA;2) 298.15 -2.92492599E+04; 6000 N !

 PARAM G(BCC_B2,AL,CU:FE:VA;0) 298.15  +3.08368712E+04; 6000 N !
 PARAM G(BCC_B2,FE:AL,CU:VA;0) 298.15  +3.08368712E+04; 6000 N !
 PARAM G(BCC_B2,AL,FE:CU:VA;0) 298.15  +3.18735471E+04; 6000 N !
 PARAM G(BCC_B2,CU:AL,FE:VA;0) 298.15  +3.18735471E+04; 6000 N !
 PARAM G(BCC_B2,CU,FE:AL:VA;0) 298.15  +5.41229146E+01; 6000 N !
 PARAM G(BCC_B2,AL:CU,FE:VA;0) 298.15  +5.41229146E+01; 6000 N !

$ *************************************************************
$ Ternary coefficients for binary compounds!

$ AL13FE4

 PARAM G(AL13FE4,CU:FE:AL;0) 298.15 +.1375*GHSERAL+.6275*GHSERCU+.235*GHSERFE
  -7.52493486E+03;  6000 N !
 PARAM G(AL13FE4,CU:FE:VA;0) 298.15 +.6275*GHSERCU+.235*GHSERFE
   +0; 6000 N !
 PARAM G(AL13FE4,AL,CU:FE:*;0)  298.15 -1.48452615E+04;         6000 N !

$ AL2FE
$PARAM G(AL2FE,AL:CU;0)    298.15 +0+2*GHSERAL+GHSERCU; 6000 N !
$PARAM G(AL2FE,AL:CU,FE;0) 298.15 +0;                   6000 N !

 PARAM G(AL2FE,CU:FE;0)    298.15 +2*GHSERAL+GHSERCU; 6000 N !
 PARAM G(AL2FE,AL,CU:FE;0) 298.15 -6.90000000E+04;              6000 N !

$ AL5FE2
$PARAM G(AL5FE2,AL:CU;0)    298.15 +5*GHSERAL+2*GHSERCU; 6000 N !
$PARAM G(AL5FE2,AL:CU,FE;0) 298.15 -1.61000000E+05;             6000 N !

 PARAM G(AL5FE2,CU:FE;0)    298.15 +5*GHSERAL+2*GHSERCU;        6000 N !
 PARAM G(AL5FE2,AL,CU:FE;0) 298.15 -1.61000000E+05;             6000 N !

$ ALCU_DELTA
 PARAM G(ALCU_DELTA,AL:FE;0) 298.15 +2*GHSERAL+3*GHSERFE;       6000 N !

$ ALCU_EPSILON
 PARAM G(ALCU_EPSILON,AL:FE;0)  298.15 +GHSERAL+GHSERFE;        6000 N !
$ PARAM G(ALCU_EPSILON,CU:FE;0) 298.15 +GHSERFE+GHSERCU;        6000 N !
 PARAM G(ALCU_EPSILON,CU:FE;0)  298.15 +15000+GHSERFE+GHSERCU;  6000 N !

$ ALCU_ETA
 PARAM G(ALCU_ETA,AL:FE;0)  298.15 +GHSERAL+GHSERFE; 6000 N !
$ PARAM G(ALCU_ETA,CU:FE;0) 298.15 +GHSERFE+GHSERCU; 6000 N !
 PARAM G(ALCU_ETA,CU:FE;0)  298.15 +15000+GHSERFE+GHSERCU;     6000 N !

$ ALCU_THETA
 PARAM G(ALCU_THETA,AL:FE;0) 298.15 +2*GHSERAL+GHSERFE; 6000 N !

$ ALCU_ZETA
 PARAM G(ALCU_ZETA,AL:FE;0)  298.15 +9*GHSERAL+11*GHSERFE; 6000 N !

$ GAMMA_D83
 PARAM G(GAMMA_D83,AL:AL:FE;0) 298.15 -150000+5*GHSERAL+8*GHSERFE; 6000 N !
 PARAM G(GAMMA_D83,AL:CU:FE;0) 298.15 -100000
+4*GHSERAL+GHSERCU+8*GHSERFE; 6000 N !

$ GAMMA_H
 PARAM G(GAMMA_H,AL:AL:FE;0)  298.15  +5*GHSERAL+8*GHSERFE; 6000 N !
 PARAM G(GAMMA_H,AL:CU:FE;0)  298.15  +4*GHSERAL+GHSERCU+8*GHSERFE; 6000 N !

$ *************************************************************
$ Ternary intermetallic compounds !
 PHASE TS01T1  %  3 4 1 23 !
 CONST TS01T1  :FE:CU:AL:  !
 PARAM G(TS01T1,FE:CU:AL;0)  298.15  +4*GHSERFE+GHSERCU+23*GHSERAL
  +1.00000000E+05+1.00000000E+02*T;   6000   N !

 PHASE TS01T2  %  3 1 2 7 !
 CONST TS01T2  :FE:CU:AL:  !
 PARAM G(TS01T2,FE:CU:AL;0)  298.15  +GHSERFE+2*GHSERCU+7*GHSERAL
  -1.97397173E+05+2.31853109E-01*T;   6000   N !

$ PHASE TS01T3  %  3 1 10 10 !
$ CONST TS01T3  :FE:CU:AL:  !
$ PARAM G(TS01T3,FE:CU:AL;0)  298.15  +GHSERFE+10*GHSERCU+10*GHSERAL
$  +V67+V68*T;   6000   N !

 PHASE TS01T3  %  3 1 10 10 !
 CONST TS01T3  :FE:CU,AL:AL:  !
 PARAM G(TS01T3,FE:CU:AL;0)  298.15  +GHSERFE+10*GHSERCU+10*GHSERAL
  -5.03196623E+05+3.78459220E+01*T;   6000   N !
 PARAM G(TS01T3,FE:AL:AL;0)  298.15  +GHSERFE+20*GHSERAL;   6000   N !

$ PHASE TS01T4  %  3 3 4 13 !
$ CONST TS01T4  :FE:CU:AL:  !
$ PARAM G(TS01T4,FE:CU:AL;0)  298.15  +3*GHSERFE+4*GHSERCU+13*GHSERAL
$  +V69+V70*T;   6000   N !

$ PHASE TS01TI  %  3 0.125 0.255 0.62 !
$ CONST TS01TI  :FE:CU:AL:  !
$ PARAM G(TS01TI,FE:CU:AL;0)  298.15  +0.125*GHSERFE+0.255*GHSERCU
$  +0.62*GHSERAL+V71+V72*T;   6000   N !

 PHASE TS01TI  %  3 0.125 0.255 0.62 !
 CONST TS01TI  :FE:CU,AL:AL:  !
 PARAM G(TS01TI,FE:CU:AL;0)  298.15  +0.125*GHSERFE+0.255*GHSERCU
  +0.62*GHSERAL-2.38213170E+04+5.27390290E-01*T;   6000   N !
 PARAM G(TS01TI,FE:AL:AL;0)  298.15  +0.125*GHSERFE+0.875*GHSERAL
  -8.87594929E+03;   6000   N !
$ *************************************************************