
$
 ELEMENT /-   ELECTRON_GAS              0.0000E+00  0.0000E+00  0.0000E+00!
 ELEMENT VA   VACUUM                    0.0000E+00  0.0000E+00  0.0000E+00!
 ELEMENT NB   BCC_A2                    9.2906E+01  5.2200E+03  3.6270E+01!
 ELEMENT SI   DIAMOND_FCC_A4            2.8085E+01  3.2175E+03  1.8820E+01!
 ELEMENT W    BCC_A2                    1.8385E+02  4.9700E+03  3.2620E+01!


 FUNCTION GHSERNB    2.98140E+02  -8519.353+142.045475*T-26.4711*T*LN(T)
     +2.03475E-04*T**2-3.5012E-07*T**3+93399*T**(-1);  2.75000E+03  Y
      -37669.3+271.720843*T-41.77*T*LN(T)+1.528238E+32*T**(-9);  6.00000E+03 
      N !

FUNCTION GNBCOMP    2.98140E+02  -8519.353+142.045475*T-26.4711*T*LN(T)
     +2.03475E-04*T**2-3.5012E-07*T**3+93399*T**(-1);  3.00000E+03  N !


 FUNCTION GHEXTNB    2.98150E+02  -8519.353+142.045475*T-26.4711*T*LN(T)
     +2.03475E-04*T**2-3.5012E-07*T**3+93399*T**(-1);   6.00000E+03   N !
 FUNCTION GHSERSI    2.98140E+02  -8162.609+137.236859*T-22.8317533*T*LN(T)
     -.001912904*T**2-3.552E-09*T**3+176667*T**(-1);  1.68700E+03  Y
      -9457.642+167.281367*T-27.196*T*LN(T)-4.20369E+30*T**(-9);  
     3.60000E+03  N !

 FUNCTION GSICOMP    2.98140E+02  -8162.609+137.236859*T-22.8317533*T*LN(T)
     -.001912904*T**2-3.552E-09*T**3+176667*T**(-1);   3000  N !

 FUNCTION GSIBCC     2.98150E+02  +47000-22.5*T+GHSERSI#;   6.00000E+03   N !
 FUNCTION GHSERWW    2.98140E+02  -7646.311+130.4*T-24.1*T*LN(T)
     -.001936*T**2+2.07E-07*T**3+44500*T**(-1)-5.33E-11*T**4;  3.69500E+03  Y
      -82868.801+389.362335*T-54*T*LN(T)+1.528621E+33*T**(-9);  6.00000E+03  
     N !
 FUNCTION GPWBCC     2.98150E+02  +YWBCC#*EXP(ZWBCC#);   6.00000E+03   N !
 FUNCTION GPWLIQ     2.98150E+02  +YWLIQ#*EXP(ZWLIQ#);   6.00000E+03   N !
 FUNCTION GWFCC      2.98150E+02  +19300+.63*T+GHSERWW#;   6.00000E+03   N !
 FUNCTION GWHCP      2.98150E+02  +14750+GHSERWW#;   6.00000E+03   N !
 FUNCTION YWBCC      2.98150E+02  +VWBCC#*EXP(-EWBCC#);   6.00000E+03   N !
 FUNCTION ZWBCC      2.98150E+02  +1*LN(XWBCC#);   6.00000E+03   N !
 FUNCTION YWLIQ      2.98150E+02  +VWLIQ#*EXP(-EWLIQ#);   6.00000E+03   N !
 FUNCTION ZWLIQ      2.98150E+02  +1*LN(XWLIQ#);   6.00000E+03   N !
 FUNCTION VWBCC      2.98150E+02  +9.5168E-06*EXP(AWBCC#);   6.00000E+03   N 
     !
 FUNCTION EWBCC      2.98150E+02  +1*LN(CWBCC#);   6.00000E+03   N !
 FUNCTION XWBCC      2.98150E+02  +1*EXP(.75*DWBCC#)-1;   6.00000E+03   N !
 FUNCTION VWLIQ      2.98150E+02  +1.03E-05*EXP(AWLIQ#);   6.00000E+03   N !
 FUNCTION EWLIQ      2.98150E+02  +1*LN(CWLIQ#);   6.00000E+03   N !
 FUNCTION XWLIQ      2.98150E+02  +1*EXP(.75*DWLIQ#)-1;   6.00000E+03   N !
 FUNCTION AWBCC      2.98150E+02  +9.386E-06*T+2.755E-09*T**2;   6.00000E+03 
       N !
 FUNCTION CWBCC      2.98150E+02  +9.4725E-12+4.8E-16*T+9.3E-20*T**2;   
     6.00000E+03   N !
 FUNCTION DWBCC      2.98150E+02  +1*LN(BWBCC#);   6.00000E+03   N !
 FUNCTION AWLIQ      2.98150E+02  +9.386E-06*T+2.755E-09*T**2;   6.00000E+03 
       N !
 FUNCTION CWLIQ      2.98150E+02  +9.4725E-12+4.8E-16*T+9.3E-20*T**2;   
     6.00000E+03   N !
 FUNCTION DWLIQ      2.98150E+02  +1*LN(BWLIQ#);   6.00000E+03   N !
 FUNCTION BWBCC      2.98150E+02  +1+1.263E-11*P+6.4E-16*T*P+1.24E-19*T**2*P;
        6.00000E+03   N !
 FUNCTION BWLIQ      2.98150E+02  +1+1.263E-11*P+6.4E-16*T*P+1.24E-19*T**2*P;
        6.00000E+03   N !
 FUNCTION UN_ASS 298.15 0; 300 N !

 TYPE_DEFINITION % SEQ *!
 DEFINE_SYSTEM_DEFAULT SPECIE 2 !
 DEFAULT_COMMAND DEF_SYS_ELEMENT VA !


  PHASE LIQUID  %  1  1.0  !
    CONSTITUENT LIQUID  :NB,SI,W :  !

   PARAMETER G(LIQUID,NB;0)  2.98140E+02  +29781.555-10.816418*T+GHSERNB#
  -3.06098E-23*T**7;  2.75000E+03  Y
   -7499.398+260.756148*T-41.77*T*LN(T);  6.00000E+03  N REF:0 !
   PARAMETER G(LIQUID,SI;0)  2.98140E+02  +50696.36-30.099439*T+GHSERSI#
  +2.09307E-21*T**7;  1.68700E+03  Y
   +40370.523+137.722298*T-27.196*T*LN(T);  3.60000E+03  N REF:0 !
   PARAMETER G(LIQUID,W;0)  2.98140E+02  +52160.584-14.10999*T+GHSERWW#
  +GPWLIQ#-2.713468E-24*T**7;  3.69500E+03  Y
   -30436.051+375.175*T-54*T*LN(T)+GPWLIQ#;  6.00000E+03  N REF:0 !

   PARAMETER L(LIQUID,NB,SI;0)		298.15	-199000;		6000 N !
   PARAMETER L(LIQUID,NB,SI;1)		298.15	-18800;			6000 N !
   PARAMETER L(LIQUID,NB,SI;2)		298.15	+50000;			6000 N !
   PARAMETER L(LIQUID,SI,W;0)		298.15	-140000+35.1*T;		6000 N !
   PARAMETER L(LIQUID,SI,W;1)		298.15	+20897.8;		6000 N !
   PARAMETER L(LIQUID,SI,W;2)		298.15	-14660.85;		6000 N !
   PARAMETER L(LIQUID,NB,W;0)		298.15	-34043+3.603*T;		6000 N !

   PARAMETER L(LIQUID,NB,SI,W;0)   	298.15	+140000-10*T;		6000 N !
   PARAMETER L(LIQUID,NB,SI,W;1)   	298.15	-140000-40*T;		6000 N !
   PARAMETER L(LIQUID,NB,SI,W;2)   	298.15	-100000;		6000 N !


  PHASE BCC_A2  %  2 1   3 !
    CONSTITUENT BCC_A2  :NB,SI,W : VA :  !

   PARAMETER G(BCC_A2,NB:VA;0)	298.15	+GHSERNB#;			6000 N !
   PARAMETER G(BCC_A2,SI:VA;0)	298.15	+GSIBCC#;			3600 N !
   PARAMETER G(BCC_A2,W:VA;0)	298.15	+GHSERWW#+GPWBCC#;		6000 N !

   PARAMETER L(BCC_A2,NB,SI:VA;0)	298.15	-151178;		6000  N !
   PARAMETER L(BCC_A2,NB,SI:VA;1)	298.15	-15915;			6000  N !
   PARAMETER L(BCC_A2,NB,SI:VA;2)	298.15	+40000;			6000  N !
   PARAMETER L(BCC_A2,SI,W:VA;0)	298.15	+13667.6-2.3*T;		6000  N !
   PARAMETER L(BCC_A2,NB,W:VA;0)	298.15	-34343+6.074*T;		6000 N !

   PARAMETER L(BCC_A2,NB,SI,W:VA;0)	298.15	-50000;			6000 N !
   PARAMETER L(BCC_A2,NB,SI,W:VA;2)	298.15	-100000-30*T;		6000 N !


  PHASE DIAMOND_A4  %  1  1.0  !
    CONSTITUENT DIAMOND_A4  :SI :  !

   PARAMETER G(DIAMOND_A4,SI;0)  2.98140E+02  +GHSERSI#;  3.60000E+03  N !


  PHASE  NB3SI %  2  .75 .25 !
    CONSTITUENT  NB3SI :NB,W :SI : !
    
    PARAMETER G(NB3SI,NB:SI;0)		298.15	-33357-6.44*T
    +.75*GNBCOMP#+.25*GSICOMP#;					6000 N !   
   
    PARAMETER G(NB3SI,W:SI;0)		298.15	5000
    +.75*GHSERWW#+.75*GPWBCC#+.25*GSICOMP#;			6000 N !

    PARAMETER L(NB3SI,NB,W:SI;0)	298.15	50000;		6000 N !


  PHASE  NB5SI3L %  2  0.625 0.375 !
    CONSTITUENT NB5SI3L :NB,SI,W : SI :  !
    
    PARAMETER G(NB5SI3L,NB:SI;0)	298.15	-62936-1.84*T
      -0.16*T*LN(T)-0.00008*T**2+7.5E-8*T**3+20000*T**(-1)
      +0.375*GSICOMP#+0.625*GNBCOMP#;					6000 N !
    PARAMETER G(NB5SI3L,SI:SI;0)	298.15	5000+GSICOMP#;		6000 N !
    PARAMETER G(NB5SI3L,NB,SI:SI;0)	298.15	-12226;			6000 N !
    
    PARAMETER G(NB5SI3L,W:SI;0)		298.15	5000
      +0.375*GSICOMP#+0.625*GHSERWW#+.625*GPWBCC#;			6000 N !

    PARAMETER L(NB5SI3L,NB,W:SI;0)	298.15	-34000-3.15*T;		6000 N !
    

  PHASE  NBSI2 %  2  0.333 0.667 !
    CONSTITUENT NBSI2 :NB,SI,W :SI :  !
 
    PARAMETER G(NBSI2,NB:SI;0)		298.15	-51200-13.161*T
      +1.09*T*LN(T)-0.00005*T**2-1.65E-8*T**3-40000*T**(-1)
      +0.333*GNBCOMP#+0.667*GSICOMP#;					6000 N !
    PARAMETER G(NBSI2,SI:SI;0)		298.15	+5000+GSICOMP#;		6000 N !
    PARAMETER G(NBSI2,NB,SI:SI;0)	298.15	+12919+4.2662*T;	6000 N !

    PARAMETER G(NBSI2,W:SI;0)		298.15	-20000-2.09*T
      +0.667*GSICOMP#+0.333*GHSERWW#+.333*GPWBCC#;			6000 N !

    PARAMETER L(NBSI2,NB,W:SI;0)	298.15	-1300;			6000 N  !
    PARAMETER L(NBSI2,NB,W:SI;1)	298.15	+3000+2.01*T;		6000 N  !
    PARAMETER L(NBSI2,NB,W:SI;2)	298.15	-2000;			6000 N  !

       
  PHASE SI2W  %  2 0.667   0.333 !
    CONSTITUENT SI2W  :SI : NB,W :  !

    PARAMETER G(SI2W,SI:W;0)		298.15	-2.670000E+04-5.17*T+0.5*T*LN(T)
      +0*T**2+2.5000000E-08*T**3-3.0000000E+04*T**(-1) 
      +0.667*GSICOMP#+0.333*GHSERWW#+0.333*GPWBCC#;			6000  N !
  
    PARAMETER G(SI2W,SI:NB;0)		298.15	-47000-1.7*T 
      +0.667*GSICOMP#+0.333*GNBCOMP#;					6000  N !

    PARAMETER L(SI2W,SI:NB,W;0)	298.15	-5000-0.2*T;			6000  N !
    PARAMETER L(SI2W,SI:NB,W;1)	298.15	-1000;				6000  N !
    PARAMETER L(SI2W,SI:NB,W;2)	298.15	-2000;				6000  N !

 
  PHASE  NB5SI3H %  3  0.5 0.125 0.375 !
    CONSTITUENT NB5SI3H :NB,W :NB,SI,W :NB,SI,W : !
    
    PARAMETER G(NB5SI3H,NB:NB:SI;0)	298.15	-51516.5-8.05*T
      +0.625*GNBCOMP#+0.375*GSICOMP#;					6000 N  !
    PARAMETER G(NB5SI3H,NB:SI:SI;0)	298.15	-18312-15.2836*T
      +0.5*GNBCOMP#+0.5*GSICOMP#;					6000 N  !
    PARAMETER G(NB5SI3H,NB:SI:NB;0)	298.15	+30000
      +0.875*GNBCOMP#+0.125*GSICOMP#;					6000 N  ! 
    PARAMETER G(NB5SI3H,NB:NB:NB;0)	298.15	+48500
      +GNBCOMP#;							6000 N  ! 
    PARAMETER L(NB5SI3H,NB:NB,SI:SI;0)	298.15	-24318;			6000 N  !

    PARAMETER G(NB5SI3H,W:SI:SI;0)		298.15	-17000-2.4*T
      +.5*GHSERWW#+.5*GPWBCC#+.5*GSICOMP#;				6000 N  !
    PARAMETER G(NB5SI3H,W:W:SI;0)		298.15	-17000-2.55*T
      +0*T*LN(T)+0*T**2-3.0000000E-08*T**3+0*T**(-1)
      +.625*GHSERWW#+.625*GPWBCC#+.375*GSICOMP#;			6000 N  !
    PARAMETER G(NB5SI3H,W:SI:W;0)		298.15	+30000
      +0.875*GHSERWW#+.875*GPWBCC#+0.125*GSICOMP#;			6000 N  ! 
    PARAMETER G(NB5SI3H,W:W:W;0)	298.15	+30000
     +GHSERWW#+GPWBCC#;							6000 N  !  
    PARAMETER L(NB5SI3H,W:SI:SI,W;0)	298.15	-10000;			6000 N  !  
    PARAMETER L(NB5SI3H,W:W:SI,W;0)	298.15	-5000;			6000 N  !
   
     PARAMETER G(NB5SI3H,W:NB:W;0)	298.15	5000
      +0.125*GNBCOMP#+0.875*GHSERWW#+.875*GPWBCC#;			6000 N  ! 
     PARAMETER G(NB5SI3H,W:W:NB;0)	298.15	0
      +0.375*GNBCOMP#+0.625*GHSERWW#+.625*GPWBCC#;			6000 N  !
     PARAMETER G(NB5SI3H,NB:W:W;0)	298.15	0
      +0.5*GNBCOMP#+0.5*GHSERWW#+.5*GPWBCC#;				6000 N  ! 
    PARAMETER G(NB5SI3H,W:NB:NB;0)	298.15	0
      +0.5*GNBCOMP#+0.5*GHSERWW#+.5*GPWBCC#;				6000 N  ! 
    PARAMETER G(NB5SI3H,NB:NB:W;0)	298.15	+50000
      +0.625*GNBCOMP#+0.375*GHSERWW#+.375*GPWBCC#;			6000 N  !
    PARAMETER G(NB5SI3H,NB:W:NB;0)	298.15	0
      +0.875*GNBCOMP#+0.125*GHSERWW#+.125*GPWBCC#;			6000 N  !       
    PARAMETER G(NB5SI3H,NB:SI:W;0)	298.15	0
      +0.5*GNBCOMP#+0.125*GSICOMP#+0.375*GHSERWW#+.375*GPWBCC#;	 	6000 N  !
    PARAMETER G(NB5SI3H,W:SI:NB;0)	298.15	0
      +0.375*GNBCOMP#+0.125*GSICOMP#+0.5*GHSERWW#+.5*GPWBCC#;		6000 N  !   
    PARAMETER G(NB5SI3H,NB:W:SI;0)	298.15	-50000-3.21*T
      +0.5*GNBCOMP#+0.375*GSICOMP#+0.125*GHSERWW#+.125*GPWBCC#;	 	6000 N  !
    PARAMETER G(NB5SI3H,W:NB:SI;0)	298.15	-24480-6.7*T
      +0.125*GNBCOMP#+0.375*GSICOMP#+0.5*GHSERWW#+.5*GPWBCC#;		6000 N  !    
   
    PARAMETER L(NB5SI3H,NB:NB,W:SI;0)	298.15	-10700-2.4*T;		6000  N  !
   



 LIST_OF_REFERENCES
 NUMBER  SOURCE
  ! 

