
$ Database file written 2014-10-13
$ From database: USER                    
 ELEMENT /-   ELECTRON_GAS              0.0000E+00  0.0000E+00  0.0000E+00!
 ELEMENT VA   VACUUM                    0.0000E+00  0.0000E+00  0.0000E+00!
 ELEMENT CO   HCP_A3                    5.8933E+01  0.0000E+00  0.0000E+00!
 ELEMENT MO   BCC_A2                    9.5940E+01  4.5890E+03  2.8560E+01!
 ELEMENT W    BCC_A2                    1.8385E+02  4.9700E+03  3.2620E+01!
 
 SPECIES CO1                         CO!
 SPECIES MO2                         MO2!
 
 FUNCTION GCOLIQ     2.98140E+02  +15085.037-8.931932*T-2.198E-21*T**7
     +GHSERCO#;  1.76800E+03  Y
      -846.61+243.599944*T-40.5*T*LN(T);  6.00000E+03  N !
 FUNCTION GWLIQ      2.98150E+02  +52160.584-14.10999*T-2.713468E-24*T**7
     +GHSERWW#;  3.69500E+03  Y
      +52432.75-14.187335*T-1.528621E+33*T**(-9)+GHSERWW#;  6.00000E+03  N !
 FUNCTION GMOLIQ     2.98150E+02  +34085.045+117.224788*T-23.56414*T*LN(T)
     -.003443396*T**2+5.66283E-07*T**3+65812*T**(-1)-1.30927E-10*T**4
     +4.24519E-22*T**7;  2.89600E+03  Y
      +3538.963+271.6697*T-42.63829*T*LN(T);  5.00000E+03  N !
 FUNCTION GCOBCC     2.98150E+02  +2938-.7138*T+GHSERCO#;   6.00000E+03   N !
 FUNCTION GHSERWW    2.98150E+02  -7646.311+130.4*T-24.1*T*LN(T)
     -.001936*T**2+2.07E-07*T**3+44500*T**(-1)-5.33E-11*T**4;  3.69500E+03  Y
      -82868.801+389.362335*T-54*T*LN(T)+1.528621E+33*T**(-9);  6.00000E+03  
     N !
 FUNCTION GHSERMO    2.98150E+02  -7746.302+131.9197*T-23.56414*T*LN(T)
     -.003443396*T**2+5.66283E-07*T**3+65812*T**(-1)-1.30927E-10*T**4;  
     2.89600E+03  Y
      -30556.41+283.559746*T-42.63829*T*LN(T)-4.849315E+33*T**(-9);  
     5.00000E+03  N !
 FUNCTION GCOFCC     2.98150E+02  +427.591-.615248*T+GHSERCO#;   6.00000E+03 
       N !
 FUNCTION GWFCC      2.98150E+02  +19300+.63*T+GHSERWW#;   6.00000E+03   N !
 FUNCTION GMOFCC     2.98150E+02  +7453.698+132.5497*T-23.56414*T*LN(T)
     -.003443396*T**2+5.66283E-07*T**3+65812*T**(-1)-1.30927E-10*T**4;  
     2.89600E+03  Y
      -15356.41+284.189746*T-42.63829*T*LN(T)-4.849315E+33*T**(-9);  
     5.00000E+03  N !
 FUNCTION GHSERCO    2.98140E+02  +310.241+133.36601*T-25.0861*T*LN(T)
     -.002654739*T**2-1.7348E-07*T**3+72527*T**(-1);  1.76800E+03  Y
      -17197.666+253.28374*T-40.5*T*LN(T)+9.3488E+30*T**(-9);  6.00000E+03  
     N !
 FUNCTION GWHCP      2.98150E+02  +14750+GHSERWW#;   6.00000E+03   N !
 FUNCTION GMOHCP     2.98150E+02  +3803.698+131.9197*T-23.56414*T*LN(T)
     -.003443396*T**2+5.66283E-07*T**3+65812*T**(-1)-1.30927E-10*T**4;  
     2.89600E+03  Y
      -19006.41+283.559746*T-42.63829*T*LN(T)-4.849315E+33*T**(-9);  
     5.00000E+03  N !
 FUNCTION F4058T     2.98140E+02  +418357.591-56.1619059*T-17.32226*T*LN(T)
     -.01344742*T**2+3.44982667E-06*T**3+21057.655*T**(-1);  6.00000E+02  Y
      +416135.824-2.86956514*T-26.15364*T*LN(T)-1.6165805E-04*T**2
     -6.62772833E-09*T**3+84845.25*T**(-1);  1.60000E+03  Y
      +403240.509+69.0982722*T-35.5394*T*LN(T)+.0026072805*T**2
     -1.325554E-07*T**3+3232830.5*T**(-1);  3.80000E+03  Y
      +467728.976-129.173207*T-11.66997*T*LN(T)-.0013247985*T**2
     -1.08658483E-08*T**3-29464565*T**(-1);  6.00000E+03  N !
 FUNCTION F12536T    2.98150E+02  +651326.983-41.0946076*T-21.0437*T*LN(T)
     +2.7252545E-04*T**2-4.77857833E-08*T**3+5594.93*T**(-1);  1.60000E+03  Y
      +633752.125+83.3186556*T-37.98605*T*LN(T)+.007623775*T**2
     -6.52545667E-07*T**3+3471277.5*T**(-1);  3.50000E+03  Y
      +1134689.66-1617.69443*T+169.6658*T*LN(T)-.03080567*T**2
     +6.87557667E-07*T**3-2.240338E+08*T**(-1);  5.00000E+03  Y
      +1008188.16-1437.30781*T+150.7395*T*LN(T)-.03086233*T**2
     +7.54569333E-07*T**3-1.0601775E+08*T**(-1);  6.20000E+03  Y
      -929123.768+2587.60477*T-309.2377*T*LN(T)+.017761425*T**2
     -2.10949167E-07*T**3+1.426406E+09*T**(-1);  1.00000E+04  N !
 FUNCTION F12544T    2.98150E+02  +892320.138+5.95304443*T-37.156*T*LN(T)
     +3.61E-05*T**2-1.10858333E-07*T**3+113615*T**(-1);  1.00000E+03  Y
      +878307.025+162.383893*T-60.077*T*LN(T)+.0165846*T**2-2.3378E-06*T**3
     +1706980*T**(-1);  1.80000E+03  Y
      +1105100.83-1223.34666*T+124.219*T*LN(T)-.05020415*T**2
     +2.21706167E-06*T**3-50788800*T**(-1);  3.10000E+03  Y
      +641365.422+619.744904*T-105.798*T*LN(T)+6.5385E-04*T**2
     +1.02916667E-07*T**3+1.25079E+08*T**(-1);  6.00000E+03  N !
 FUNCTION UN_ASS 298.15 0; 300 N !
 
 TYPE_DEFINITION % SEQ *!
 DEFINE_SYSTEM_DEFAULT ELEMENT 2 !
 DEFAULT_COMMAND DEF_SYS_ELEMENT VA /- !


 PHASE GAS:G %  1  1.0  !
    CONSTITUENT GAS:G :CO,MO,MO2 :  !

   PARAMETER G(GAS,CO;0)  2.98150E+02  +F4058T#+RTLNP#;   6.00000E+03   N 
  REF0 !
   PARAMETER G(GAS,MO;0)  2.98150E+02  +F12536T#+RTLNP#;   6.00000E+03   N 
  REF0 !
   PARAMETER G(GAS,MO2;0)  2.98150E+02  +F12544T#+RTLNP#;   6.00000E+03   N 
  REF0 !


 TYPE_DEFINITION & GES A_P_D BCC_A2 MAGNETIC  -1.0    4.00000E-01 !
 PHASE BCC_A2  %&  2 1   3 !
    CONSTITUENT BCC_A2  :CO,MO,VA,W : VA :  !

   PARAMETER G(BCC_A2,CO:VA;0)  2.98150E+02  +GCOBCC#;   6.00000E+03   N 
  REF0 !
   PARAMETER TC(BCC_A2,CO:VA;0)  2.98150E+02  1450;   6.00000E+03   N REF0 !
   PARAMETER BMAGN(BCC_A2,CO:VA;0)  2.98150E+02  1.35;   6.00000E+03   N 
  REF0 !
   PARAMETER G(BCC_A2,MO:VA;0)  2.98150E+02  +GHSERMO#;   6.00000E+03   N 
  REF0 !
   PARAMETER G(BCC_A2,VA:VA;0)  2.98150E+02  +100*T;   6.00000E+03   N REF0 !
   PARAMETER G(BCC_A2,W:VA;0)  2.98150E+02  +GHSERWW#;   6.00000E+03   N 
  REF0 !
   PARAMETER G(BCC_A2,CO,VA:VA;0)  2.98150E+02  135000;   6.00000E+03   N 
  REF0 !
   PARAMETER G(BCC_A2,CO,W:VA;0)  2.98150E+02  56517;   6.00000E+03   N REF0 !
   PARAMETER TC(BCC_A2,CO,W:VA;0)  2.98150E+02  -3379;   6.00000E+03   N 
  REF0 !
   PARAMETER BMAGN(BCC_A2,CO,W:VA;0)  2.98150E+02  -3.146;   6.00000E+03   N 
  REF0 !
   PARAMETER G(BCC_A2,CO,MO:VA;0)  2.98150E+02  +5000+7.597*T;   6.00000E+03 
    N REF0 !
   PARAMETER G(BCC_A2,CO,MO:VA;1)  2.98150E+02  -19208.67;   6.00000E+03   N 
  REF0 !
   PARAMETER TC(BCC_A2,CO,MO:VA;0)  2.98150E+02  -3700;   6.00000E+03   N 
  REF0 !
   PARAMETER BMAGN(BCC_A2,CO,MO:VA;0)  2.98150E+02  -3.445;   6.00000E+03   
  N REF0 !
   PARAMETER G(BCC_A2,MO,W:VA;0)  2.98150E+02  2000;   6.00000E+03   N REF0 !


$ THIS PHASE HAS A DISORDERED CONTRIBUTION FROM BCC_A2                  
 TYPE_DEFINITION ' GES AMEND_PHASE_DESCRIPTION BCC_B2 DIS_PART BCC_A2,,,!
 PHASE BCC_B2  %'  3 .5   .5   3 !
    CONSTITUENT BCC_B2  :CO,MO,VA,W : CO,MO,VA,W : VA :  !

       PARA G(BCC_B2,CO:CO:VA;0) 298.15 0; 6000 N!
       PARA G(BCC_B2,MO:CO:VA;0) 298.15 0; 6000 N!
   PARAMETER G(BCC_B2,VA:CO:VA;0)  2.98150E+02  67500;   6.00000E+03   N 
  REF0 !
       PARA G(BCC_B2,W:CO:VA;0) 298.15 0; 6000 N!
       PARA G(BCC_B2,CO:MO:VA;0) 298.15 0; 6000 N!
       PARA G(BCC_B2,MO:MO:VA;0) 298.15 0; 6000 N!
   PARAMETER G(BCC_B2,VA:MO:VA;0)  2.98150E+02  75000;   6.00000E+03   N 
  REF0 !
       PARA G(BCC_B2,W:MO:VA;0) 298.15 0; 6000 N!
   PARAMETER G(BCC_B2,CO:VA:VA;0)  2.98150E+02  67500;   6.00000E+03   N 
  REF0 !
   PARAMETER G(BCC_B2,MO:VA:VA;0)  2.98150E+02  75000;   6.00000E+03   N 
  REF0 !
       PARA G(BCC_B2,VA:VA:VA;0) 298.15 0; 6000 N!
       PARA G(BCC_B2,W:VA:VA;0) 298.15 0; 6000 N!
       PARA G(BCC_B2,CO:W:VA;0) 298.15 0; 6000 N!
       PARA G(BCC_B2,MO:W:VA;0) 298.15 0; 6000 N!
       PARA G(BCC_B2,VA:W:VA;0) 298.15 0; 6000 N!
       PARA G(BCC_B2,W:W:VA;0) 298.15 0; 6000 N!


 PHASE CO3MO  %  2 3   1 !
    CONSTITUENT CO3MO  :CO : MO :  !

   PARAMETER G(CO3MO,CO:MO;0)  2.98150E+02  +3*GHSERCO#+GHSERMO#-47009.6
  +20.816*T;   6.00000E+03   N REF0 !


 PHASE CO3W  %  2 3   1 !
    CONSTITUENT CO3W  :CO : W :  !

   PARAMETER G(CO3W,CO:W;0)  2.98150E+02  -17930+2.4*T+3*GHSERCO#+GHSERWW#;  
   6.00000E+03   N REF0 !


 TYPE_DEFINITION ( GES A_P_D FCC_A1 MAGNETIC  -3.0    2.80000E-01 !
 PHASE FCC_A1  %(  2 1   1 !
    CONSTITUENT FCC_A1  :CO,MO,W : VA :  !

   PARAMETER G(FCC_A1,CO:VA;0)  2.98150E+02  +GCOFCC#;   6.00000E+03   N 
  REF0 !
   PARAMETER TC(FCC_A1,CO:VA;0)  2.98150E+02  1395.998;   6.00000E+03   N 
  REF0 !
   PARAMETER BMAGN(FCC_A1,CO:VA;0)  2.98150E+02  1.35;   6.00000E+03   N 
  REF0 !
   PARAMETER G(FCC_A1,MO:VA;0)  2.98150E+02  +GMOFCC#;   6.00000E+03   N 
  REF0 !
   PARAMETER G(FCC_A1,W:VA;0)  2.98150E+02  +GWFCC#;   6.00000E+03   N REF0 !
   PARAMETER G(FCC_A1,CO,MO:VA;0)  2.98150E+02  -29557.1+10.953*T;   
  6.00000E+03   N REF0 !
   PARAMETER G(FCC_A1,CO,MO:VA;1)  2.98150E+02  -1382.2+15.371*T;   
  6.00000E+03   N REF0 !
   PARAMETER G(FCC_A1,CO,MO:VA;2)  2.98150E+02  -18135.4;   6.00000E+03   N 
  REF0 !
   PARAMETER TC(FCC_A1,CO,MO:VA;0)  2.98150E+02  -3700;   6.00000E+03   N 
  REF0 !
   PARAMETER BMAGN(FCC_A1,CO,MO:VA;0)  2.98150E+02  -3.578;   6.00000E+03   
  N REF0 !
   PARAMETER G(FCC_A1,CO,W:VA;0)  2.98150E+02  -19900+12.8*T;   6.00000E+03  
   N REF0 !
   PARAMETER G(FCC_A1,CO,W:VA;1)  2.98150E+02  +17970-19.3*T;   6.00000E+03  
   N REF0 !
   PARAMETER TC(FCC_A1,CO,W:VA;0)  2.98150E+02  -3379;   6.00000E+03   N 
  REF0 !
   PARAMETER BMAGN(FCC_A1,CO,W:VA;0)  2.98150E+02  -3.268;   6.00000E+03   N 
  REF0 !
   PARAMETER G(FCC_A1,MO,W:VA;0)  2.98150E+02  2000;   6.00000E+03   N REF0 !


 TYPE_DEFINITION ) GES A_P_D HCP_A3 MAGNETIC  -3.0    2.80000E-01 !
 PHASE HCP_A3  %)  2 1   .5 !
    CONSTITUENT HCP_A3  :CO,MO,W : VA :  !

   PARAMETER G(HCP_A3,CO:VA;0)  2.98150E+02  +GHSERCO#;   6.00000E+03   N 
  REF0 !
   PARAMETER TC(HCP_A3,CO:VA;0)  2.98150E+02  1396;   6.00000E+03   N REF0 !
   PARAMETER BMAGN(HCP_A3,CO:VA;0)  2.98150E+02  1.35;   6.00000E+03   N 
  REF0 !
   PARAMETER G(HCP_A3,MO:VA;0)  2.98150E+02  +GMOHCP#;   6.00000E+03   N 
  REF0 !
   PARAMETER G(HCP_A3,W:VA;0)  2.98150E+02  +GWHCP#;   6.00000E+03   N REF0 !
   PARAMETER G(HCP_A3,CO,MO:VA;0)  2.98150E+02  -29315.7+23.755*T;   
  6.00000E+03   N REF0 !
   PARAMETER G(HCP_A3,CO,MO:VA;1)  2.98150E+02  -27975.9-1.936*T;   
  6.00000E+03   N REF0 !
   PARAMETER G(HCP_A3,CO,MO:VA;2)  2.98150E+02  24698.3;   6.00000E+03   N 
  REF0 !
   PARAMETER TC(HCP_A3,CO,MO:VA;0)  2.98150E+02  -1000;   6.00000E+03   N 
  REF0 !
   PARAMETER G(HCP_A3,CO,W:VA;0)  2.98150E+02  63000;   6.00000E+03   N REF0 !
   PARAMETER TC(HCP_A3,CO,W:VA;0)  2.98150E+02  -3379;   6.00000E+03   N 
  REF0 !
   PARAMETER BMAGN(HCP_A3,CO,W:VA;0)  2.98150E+02  -3.268;   6.00000E+03   N 
  REF0 !
   PARAMETER G(HCP_A3,MO,W:VA;0)  2.98150E+02  2000;   6.00000E+03   N REF0 !


$ THIS PHASE HAS A DISORDERED CONTRIBUTION FROM FCC_A1                  
 TYPE_DEFINITION * GES AMEND_PHASE_DESCRIPTION L12_FCC DIS_PART FCC_A1,,,!
 PHASE L12_FCC  %*  3 .75   .25   1 !
    CONSTITUENT L12_FCC  :CO,MO,W : CO,MO,W : VA :  !

       PARA G(L12_FCC,CO:CO:VA;0) 298.15 0; 6000 N!
       PARA G(L12_FCC,MO:CO:VA;0) 298.15 0; 6000 N!
       PARA G(L12_FCC,W:CO:VA;0) 298.15 0; 6000 N!
       PARA G(L12_FCC,CO:MO:VA;0) 298.15 0; 6000 N!
       PARA G(L12_FCC,MO:MO:VA;0) 298.15 0; 6000 N!
       PARA G(L12_FCC,W:MO:VA;0) 298.15 0; 6000 N!
       PARA G(L12_FCC,CO:W:VA;0) 298.15 0; 6000 N!
       PARA G(L12_FCC,MO:W:VA;0) 298.15 0; 6000 N!
       PARA G(L12_FCC,W:W:VA;0) 298.15 0; 6000 N!


 PHASE LAVES_C14  %  2 2   1 !
    CONSTITUENT LAVES_C14  :CO,W : CO,W :  !

   PARAMETER G(LAVES_C14,CO:CO;0)  2.98150E+02  +3*GHSERCO#+15000;   
  6.00000E+03   N REF0 !
       PARA G(LAVES_C14,W:CO;0) 298.15 0; 6000 N!
       PARA G(LAVES_C14,CO:W;0) 298.15 0; 6000 N!
       PARA G(LAVES_C14,W:W;0) 298.15 0; 6000 N!


 TYPE_DEFINITION + GES A_P_D LAVES_C15 MAGNETIC  -3.0    2.80000E-01 !
 PHASE LAVES_C15  %+  2 2   1 !
    CONSTITUENT LAVES_C15  :CO,MO : CO,MO :  !

   PARAMETER G(LAVES_C15,CO:CO;0)  2.98150E+02  +3*GHSERCO#+15000;   
  6.00000E+03   N REF0 !
       PARA G(LAVES_C15,MO:CO;0) 298.15 0; 6000 N!
       PARA G(LAVES_C15,CO:MO;0) 298.15 0; 6000 N!
   PARAMETER G(LAVES_C15,MO:MO;0)  2.98150E+02  +3*GHSERMO#+15000;   
  6.00000E+03   N REF0 !


 PHASE LAVES_C36  %  2 2   1 !
    CONSTITUENT LAVES_C36  :CO : CO :  !

   PARAMETER G(LAVES_C36,CO:CO;0)  2.98150E+02  +3*GHSERCO#+15000;   
  6.00000E+03   N REF0 !


 PHASE LIQUID  %  1  1.0  !
    CONSTITUENT LIQUID  :CO,MO,W :  !

   PARAMETER G(LIQUID,CO;0)  2.98150E+02  +GCOLIQ#;   6.00000E+03   N REF0 !
   PARAMETER G(LIQUID,MO;0)  2.98150E+02  +GMOLIQ#;   6.00000E+03   N REF0 !
   PARAMETER G(LIQUID,W;0)  2.98150E+02  +GWLIQ#;   6.00000E+03   N REF0 !
   PARAMETER G(LIQUID,CO,MO;0)  2.98150E+02  -68756.05+31.8*T+.2*T*LN(T);   
  6.00000E+03   N REF0 !
   PARAMETER G(LIQUID,CO,MO;1)  2.98150E+02  +2184.77+1.5*T;   6.00000E+03   
  N REF0 !
   PARAMETER G(LIQUID,CO,W;0)  2.98150E+02  -57700+22.8*T;   6.00000E+03   N 
  REF0 !
   PARAMETER G(LIQUID,CO,W;1)  2.98150E+02  2505.9;   6.00000E+03   N REF0 !


 PHASE MC_ETA  %  2 1   1 !
    CONSTITUENT MC_ETA  :MO,W : VA :  !

   PARAMETER G(MC_ETA,MO:VA;0)  2.98150E+02  +GHSERMO#+15200+.63*T;   
  6.00000E+03   N REF0 !
   PARAMETER G(MC_ETA,W:VA;0)  2.98150E+02  +GHSERWW#+19300+.63*T;   
  6.00000E+03   N REF0 !
   PARAMETER G(MC_ETA,MO,W:VA;0)  2.98150E+02  2000;   6.00000E+03   N REF0 !


 PHASE MONI3  %  2 .75   .25 !
    CONSTITUENT MONI3  :MO : MO :  !

   PARAMETER G(MONI3,MO:MO;0)  2.98150E+02  +GHSERMO#+45000;   6.00000E+03   
  N REF0 !


 PHASE MU_PHASE  %  3 7   2   4 !
    CONSTITUENT MU_PHASE  :CO,MO : MO,W : CO,MO,W :  !

   PARAMETER G(MU_PHASE,CO:MO:CO;0)  2.98150E+02  +7*GHSERCO#+2*GHSERMO#
  +4*GHSERCO#-64478.6+49.936*T;   6.00000E+03   N REF0 !
   PARAMETER G(MU_PHASE,MO:MO:CO;0)  2.98150E+02  +7*GHSERMO#+2*GHSERMO#
  +4*GHSERCO#+105928.1+30.152*T;   6.00000E+03   N REF0 !
   PARAMETER G(MU_PHASE,CO:W:CO;0)  2.98150E+02  +59040+7*GCOFCC#+4*GCOBCC#
  +2*GHSERWW#;   6.00000E+03   N REF0 !
       PARA G(MU_PHASE,MO:W:CO;0) 298.15 0; 6000 N!
   PARAMETER G(MU_PHASE,CO:MO:MO;0)  2.98150E+02  +7*GHSERCO#+2*GHSERMO#
  +4*GHSERMO#-105406.7+19.784*T;   6.00000E+03   N REF0 !
   PARAMETER G(MU_PHASE,MO:MO:MO;0)  2.98150E+02  +7*GHSERMO#+2*GHSERMO#
  +4*GHSERMO#+65000;   6.00000E+03   N REF0 !
       PARA G(MU_PHASE,CO:W:MO;0) 298.15 0; 6000 N!
       PARA G(MU_PHASE,MO:W:MO;0) 298.15 0; 6000 N!
       PARA G(MU_PHASE,CO:MO:W;0) 298.15 0; 6000 N!
       PARA G(MU_PHASE,MO:MO:W;0) 298.15 0; 6000 N!
   PARAMETER G(MU_PHASE,CO:W:W;0)  2.98150E+02  -32650-14.4*T+7*GCOFCC#
  +6*GHSERWW#;   6.00000E+03   N REF0 !
       PARA G(MU_PHASE,MO:W:W;0) 298.15 0; 6000 N!
   PARAMETER G(MU_PHASE,CO,MO:MO:CO;0)  2.98150E+02  -59132.6+161*T;   
  6.00000E+03   N REF0 !
   PARAMETER G(MU_PHASE,CO:MO:CO,MO;0)  2.98150E+02  -117092.4+115*T;   
  6.00000E+03   N REF0 !
   PARAMETER G(MU_PHASE,MO:MO:CO,MO;0)  2.98150E+02  -117092.4+115*T;   
  6.00000E+03   N REF0 !
   PARAMETER G(MU_PHASE,CO,MO:MO:MO;0)  2.98150E+02  -59132.6+161*T;   
  6.00000E+03   N REF0 !


 PHASE R_PHASE  %  3 27   14   12 !
    CONSTITUENT R_PHASE  :CO,W : MO,W : CO,MO,W :  !

       PARA G(R_PHASE,CO:MO:CO;0) 298.15 0; 6000 N!
       PARA G(R_PHASE,W:MO:CO;0) 298.15 0; 6000 N!
   PARAMETER G(R_PHASE,CO:W:CO;0)  2.98150E+02  +27*GCOFCC#+14*GHSERWW#
  +12*GCOBCC#;   6.00000E+03   N REF0 !
   PARAMETER G(R_PHASE,W:W:CO;0)  2.98150E+02  +27*GWFCC#+14*GHSERWW#
  +12*GCOBCC#+500000;   6.00000E+03   N REF0 !
       PARA G(R_PHASE,CO:MO:MO;0) 298.15 0; 6000 N!
       PARA G(R_PHASE,W:MO:MO;0) 298.15 0; 6000 N!
       PARA G(R_PHASE,CO:W:MO;0) 298.15 0; 6000 N!
       PARA G(R_PHASE,W:W:MO;0) 298.15 0; 6000 N!
       PARA G(R_PHASE,CO:MO:W;0) 298.15 0; 6000 N!
       PARA G(R_PHASE,W:MO:W;0) 298.15 0; 6000 N!
   PARAMETER G(R_PHASE,CO:W:W;0)  2.98150E+02  +27*GCOFCC#+26*GHSERWW#;   
  6.00000E+03   N REF0 !
   PARAMETER G(R_PHASE,W:W:W;0)  2.98150E+02  +27*GWFCC#+26*GHSERWW#+500000; 
    6.00000E+03   N REF0 !


 PHASE SIGMA  %  3 8   4   18 !
    CONSTITUENT SIGMA  :CO,W : MO,W : CO,MO,W :  !

   PARAMETER G(SIGMA,CO:MO:CO;0)  2.98150E+02  +8*GHSERCO#+4*GHSERMO#
  +18*GHSERCO#-130932.67+240.554*T;   6.00000E+03   N REF0 !
       PARA G(SIGMA,W:MO:CO;0) 298.15 0; 6000 N!
   PARAMETER G(SIGMA,CO:W:CO;0)  2.98150E+02  +8*GCOFCC#+4*GHSERWW#
  +18*GCOBCC#+50000;   6.00000E+03   N REF0 !
   PARAMETER G(SIGMA,W:W:CO;0)  2.98150E+02  +8*GWFCC#+4*GHSERWW#+18*GCOBCC#
  +800000;   6.00000E+03   N REF0 !
   PARAMETER G(SIGMA,CO:MO:MO;0)  2.98150E+02  +8*GHSERCO#+4*GHSERMO#
  +18*GHSERMO#-87868.24+14.662*T;   6.00000E+03   N REF0 !
       PARA G(SIGMA,W:MO:MO;0) 298.15 0; 6000 N!
       PARA G(SIGMA,CO:W:MO;0) 298.15 0; 6000 N!
       PARA G(SIGMA,W:W:MO;0) 298.15 0; 6000 N!
       PARA G(SIGMA,CO:MO:W;0) 298.15 0; 6000 N!
       PARA G(SIGMA,W:MO:W;0) 298.15 0; 6000 N!
   PARAMETER G(SIGMA,CO:W:W;0)  2.98150E+02  +8*GCOFCC#+22*GHSERWW#+350000;  
   6.00000E+03   N REF0 !
   PARAMETER G(SIGMA,W:W:W;0)  2.98150E+02  +8*GWFCC#+22*GHSERWW#+300713;   
  6.00000E+03   N REF0 !
   PARAMETER G(SIGMA,CO:MO:CO,MO;0)  2.98150E+02  -157492.37;   6.00000E+03  
   N REF0 !

 LIST_OF_REFERENCES
 NUMBER  SOURCE
  ! 
 
