$            ********************************************************
$                  ------------    Mg-Mn-Sr TDB    ---------------
$            ********************************************************
$*****************************************************************************
$                            ------------------------
$                            (I) Element description
$                            ------------------------
TEMP_LIM 298.15 6000 !
ELEMENT /-   ELECTRON_GAS              0.0000E+00  0.0000E+00  0.0000E+00!
ELEMENT VA   VACUUM                    0.0000E+00  0.0000E+00  0.0000E+00!
ELEMENT MG   HCP_A3                    2.4305E+01  4.9980E+03  3.2671E+01!
ELEMENT MN   CBCC_A12                  5.4938E+01  4.9960E+03  3.2008E+01!
ELEMENT SR   FCC_A1                    8.7620E+01  6.5680E+03  5.5694E+01!
$*****************************************************************************
$                            ------------------------
$                            (II) Type description
$                            ------------------------
TYPE_DEFINITION % SEQ *!
TYPE_DEFINITION ( GES A_P_D CBCC_A12 MAGNETIC  -1.0    4.00000E-01 !
TYPE_DEFINITION ) GES A_P_D FCC_A1   MAGNETIC  -3.0    2.80000E-01 !
TYPE_DEFINITION & GES A_P_D BCC_A2   MAGNETIC  -1.0    4.00000E-01 !
DEFINE_SYSTEM_DEFAULT ELEMENT 2 !
DEFAULT_COMMAND DEF_SYS_ELEMENT VA /- !
SPECIES MG2  MG2!
SPECIES SR2    SR2 !
$
$*****************************************************************************
$                              -------------------
$                               (III) Unary data
$                              -------------------
$

FUNCTION GHSERMN    2.98150E+02  -8115.28+130.059*T-23.4582*T*LN(T)
     -.00734768*T**2+69827*T**(-1);  1.51900E+03  Y
      -28733.41+312.2648*T-48*T*LN(T)+1.656847E+30*T**(-9);  6.00000E+03  N !
FUNCTION GFCCMN     2.98150E+02  -3439.3+131.884*T-24.5177*T*LN(T)
     -.006*T**2+69600*T**(-1);  1.51900E+03  Y
      -26070.1+309.6664*T-48*T*LN(T)+3.86196E+30*T**(-9);  6.00000E+03  N !
FUNCTION GHSERSR    2.98140E+02  -7532.367+107.183879*T-23.905*T*LN(T)
     -.00461225*T**2-1.67477E-07*T**3-2055*T**(-1);  8.19990E+02  Y
      -13380.102+153.196104*T-30.0905432*T*LN(T)-.003251266*T**2
     +1.84189E-07*T**3+850134*T**(-1);  3.00000E+03  N !
FUNCTION GHSERMG    2.98150E+02  -8367.34+143.675547*T-26.1849782*T*LN(T)
     +4.858E-04*T**2-1.393669E-06*T**3+78950*T**(-1);  9.23000E+02  Y
      -14130.185+204.716215*T-34.3088*T*LN(T)+1.038192E+28*T**(-9);  
     3.00000E+03  N !


 FUNCTION F12577T    2.98150E+02  +136346.96-4.82603167*T-20.78595*T*LN(T)
     -9.778455E-08*T**2;  1.90000E+03  Y
      +131004.76+25.2078895*T-24.73039*T*LN(T)+.001300831*T**2
     -8.09592167E-08*T**3+1361843*T**(-1);  2.70000E+03  Y
      +108558.443+123.736524*T-37.20356*T*LN(T)+.004390735*T**2
     -2.24912E-07*T**3+8958715*T**(-1);  3.64000E+03  Y
      +137405.469+24.8050173*T-25.1271*T*LN(T)+.002179723*T**2
     -1.502275E-07*T**3-3744678*T**(-1);  5.40000E+03  Y
      +453901.917-789.444217*T+70.54811*T*LN(T)-.010649025*T**2
     +1.716475E-07*T**3-1.996814E+08*T**(-1);  9.20000E+03  Y
      -320526.4+427.791915*T-63.73726*T*LN(T)-2.847232E-04*T**2
     +2.15099667E-08*T**3+6.39436E+08*T**(-1);  1.00000E+04  N !
 FUNCTION F12657T    2.98150E+02  +265944.946-87.7878521*T-20.93983*T*LN(T)
     +1.552631E-04*T**2-2.450615E-08*T**3-152571.35*T**(-1);  1.90000E+03  Y
      +60639.4722+1067.97947*T-172.7914*T*LN(T)+.05046705*T**2
     -3.17995833E-06*T**3+52217650*T**(-1);  3.10000E+03  Y
      +183972.546-306.017225*T+38.52094*T*LN(T)-.06477725*T**2
     +1.27170267E-06*T**3-4.2909405E+08*T**(-1);  3.80000E+03  Y
      +3910381.27-11627.1626*T+1374.666*T*LN(T)-.24531065*T**2
     +7.44476833E-06*T**3-1.5282495E+09*T**(-1);  4.80000E+03  Y
      -5097786.05+12220.6183*T-1438.848*T*LN(T)+.1458377*T**2
     -2.76687E-06*T**3+3.8878475E+09*T**(-1);  6.00000E+03  N !
 FUNCTION F15641T    2.98150E+02  +153602.922-22.5981707*T-20.98549*T*LN(T)
     +1.951298E-04*T**2-3.09095833E-08*T**3+4675.2365*T**(-1);  1.80000E+03  
     Y
      +110622.883+243.910805*T-56.52776*T*LN(T)+.0133862*T**2
     -9.57800833E-07*T**3+9843260*T**(-1);  3.30000E+03  Y
      +770247.913-2113.22282*T+233.253*T*LN(T)-.04337796*T**2
     +1.134592E-06*T**3-2.7250735E+08*T**(-1);  4.90000E+03  Y
      -197367.294+264.872067*T-44.45892*T*LN(T)-.008078665*T**2
     +2.96671167E-07*T**3+3.57637E+08*T**(-1);  6.20000E+03  Y
      -949681.502+1953.67837*T-239.3059*T*LN(T)+.01421437*T**2
     -1.79062E-07*T**3+8.9842E+08*T**(-1);  9.60000E+03  Y
      +33681.1759+476.502383*T-77.25547*T*LN(T)+.00232914*T**2
     -1.54504333E-08*T**3-2.2245325E+08*T**(-1);  1.00000E+04  N !
 FUNCTION F15650T    2.98150E+02  +296202.76+61.7700383*T-54.13634*T*LN(T)
     +.040485225*T**2-9.264165E-06*T**3-70453.75*T**(-1);  5.00000E+02  Y
      +308348.288-147.486672*T-20.95926*T*LN(T)+1.012636E-04*T**2
     -8.03856667E-09*T**3-905190.5*T**(-1);  3.00000E+03  N !
 FUNCTION F12710T    2.98150E+02  +276164.054-34.4987551*T-20.786*T*LN(T);  
     1.57500E+03  Y
      +275547.585-29.248057*T-21.52064*T*LN(T)+3.819474E-04*T**2
     -3.66030333E-08*T**3+95180.95*T**(-1);  2.10000E+03  Y
      +274521.741-16.384493*T-23.35302*T*LN(T)+.0013469965*T**2
     -1.18903067E-07*T**3;  2.40000E+03  N !

$*****************************************************************************
$                              -----------------------
$                               (IV) Phase description
$                              -----------------------
$
 PHASE GAS:G %  1  1.0  !
    CONSTITUENT GAS:G :MG,MG2,MN,SR,SR2 :  !
  
   PARAMETER G(GAS,MN;0)  2.98150E+02  +F12710T#+R#*T*LN(1E-05*P);   
  6.00000E+03   N !
  PARAMETER G(GAS,MG;0)  2.98150E+02  +F12577T#+R#*T*LN(1E-05*P);   
  6.00000E+03   N !
   PARAMETER G(GAS,MG2;0)  2.98150E+02  +F12657T#+R#*T*LN(1E-05*P);   
  6.00000E+03   N !
   PARAMETER G(GAS,SR;0)  2.98150E+02  +F15641T#+R#*T*LN(1E-05*P);   
  6.00000E+03   N !
   PARAMETER G(GAS,SR2;0)  2.98150E+02  +F15650T#+R#*T*LN(1E-05*P);   
  6.00000E+03   N !


$----------------Phase liquid---------------
$
 PHASE LIQUID % 1 1.0 !
 CONST LIQUID :MG,MN,SR: !
 PARAMETER G(LIQUID,MN;0)  2.98150E+02  +17859.91-12.6208*T
  -4.41929E-21*T**7+GHSERMN#;  1.51900E+03  Y
   +18739.51-13.2288*T-1.656847E+30*T**(-9)+GHSERMN#;  6.00000E+03  N REF0 !
 PARAMETER G(LIQUID,SR;0)  2.98150E+02  +2194.997-10.118994*T
  -5.0668978*T*LN(T)-.031840595*T**2+4.981237E-06*T**3-265559*T**(-1);  
  1.05000E+03  Y
   -10855.29+213.406219*T-39.463*T*LN(T);  3.00000E+03  N REF:0 !
PARAMETER G(LIQUID,MG;0) 2.98150E+02 -165.097+134.838617*T-26.1849782*T*LN(T)
     +4.858E-04*T**2-1.393669E-06*T**3+78950*T**(-1)-8.0176E-20*T**7;  
     9.23000E+02  Y
      -5439.869+195.324057*T-34.3088*T*LN(T);  3.00000E+03  N !
 PARAMETER L(LIQUID,MN,SR;0) 2.98150E+02  52885;  
                                           3.00000E+03  N !
 PARAMETER L(LIQUID,MN,SR;1) 2.98150E+02  9509;  
                                           3.00000E+03  N !
 PARAMETER G(LIQUID,MG,SR;0)  2.98150E+02  -20858+6.358*T;   6.00000E+03  N !
   PARAMETER G(LIQUID,MG,SR;1)  2.98150E+02  -13008+4.715*T;   6.00000E+03  N !
   PARAMETER G(LIQUID,MG,MN;0)  2.98150E+02  +25922.4+9.0357*T;   
  6.00000E+03   N !
   PARAMETER G(LIQUID,MG,MN;1)  2.98150E+02  -3470.8;   6.00000E+03   N !
$
$--------------Phase CBCC_A12----------------
$
 PHASE CBCC_A12  %(  2 1 1 !
 CONST CBCC_A12  :MG,MN,SR: VA :  !
 PARAMETER G(CBCC_A12,MN:VA;0)  2.98150E+02  +GHSERMN#;   6.00000E+03   N  !
 PARAMETER G(CBCC_A12,MG:VA;0)  2.98150E+02  -3764.94+140.664547*T
  -26.1849782*T*LN(T)+4.858E-04*T**2-1.393669E-06*T**3+78950*T**(-1);  
  9.23000E+02  Y
  -9527.785+201.705215*T-34.3088*T*LN(T)+1.038192E+28*T**(-9);  3.00000E+03 N !
 PARAMETER L(CBCC_A12,MN,SR:VA;0)  2.98150E+02   81258.19; 
                                                   6.00000E+03   N  !
 PARAMETER TC(CBCC_A12,MN:VA;0)  2.98150E+02  -285;   6.00000E+03   N !
 PARAMETER BMAGN(CBCC_A12,MN:VA;0)  2.98150E+02  -.66;   6.00000E+03   N !
 PARAMETER G(CBCC_A12,MG,MN:VA;0)  2.98150E+02  85000;   6.00000E+03   N !

$-------------Phase CUB_A13------------------
$
 PHASE CUB_A13  %  2 1 1 !
 CONST CUB_A13  :MG,MN,SR: VA :  !
 PARAMETER G(CUB_A13,MN:VA;0)  2.98150E+02  +2314.88+5.936*T
  -1.4203*T*LN(T)+.00151409*T**2+442*T**(-1)+GHSERMN#;  1.51900E+03  Y
   +442.65-.9715*T+2.3107229E+30*T**(-9)+GHSERMN#;  6.00000E+03  N REF0 !
 PARAMETER G(CUB_A13,MG:VA;0)  2.98150E+02  -3367.34+140.675547*T
  -26.1849782*T*LN(T)+4.858E-04*T**2-1.393669E-06*T**3+78950*T**(-1);  
  9.23000E+02  Y
   -9130.185+201.716215*T-34.3088*T*LN(T)+1.038192E+28*T**(-9);  3.00000E+03 
   N  !
 PARAMETER L(CUB_A13,MN,SR:VA;0)  2.98150E+02   89018;  
                                                   6.00000E+03   N REF0 !
   PARAMETER G(CUB_A13,MG,MN:VA;0)  2.98150E+02  85000;   6.00000E+03   N !
$
$-------------Phase FCC_A1-------------------
$
 PHASE FCC_A1  %)  2 1 1 !
 CONST FCC_A1  :MG,MN,SR: VA :  !
 PARAMETER G(FCC_A1,MN:VA;0)  2.98150E+02  +GFCCMN#;   6.00000E+03   N 
  REF0 !
 PARAMETER G(FCC_A1,SR:VA;0)  2.98140E+02  +GHSERSR#;  6.00000E+03  N  !
 PARAMETER G(FCC_A1,MG:VA;0)  2.98150E+02  -5767.34+142.775547*T
  -26.1849782*T*LN(T)+4.858E-04*T**2-1.393669E-06*T**3+78950*T**(-1);  
  9.23000E+02  Y
   -11530.185+203.816215*T-34.3088*T*LN(T)+1.038192E+28*T**(-9);  
  3.00000E+03  N !
 PARAMETER L(FCC_A1,MN,SR:VA;0)  2.98150E+02   60932.19; 
                                                    6.00000E+03   N  !
 PARAMETER TC(FCC_A1,MN:VA;0)  2.98150E+02  -1620;   6.00000E+03   N  !
 PARAMETER BMAGN(FCC_A1,MN:VA;0)  2.98150E+02  -1.86;   6.00000E+03   N  ! 
 PARAMETER G(FCC_A1,MG,SR:VA;0)  2.98150E+02  20000;   6.00000E+03   N !
   PARAMETER G(FCC_A1,MG,MN:VA;0)  2.98150E+02  85000;   6.00000E+03   N !
$
$-------------Phase BCC_A2-------------------
$
 PHASE BCC_A2 %&  2 1  1 !
 CONST BCC_A2 :MG,MN,SR: VA :  !
 PARAMETER G(BCC_A2,MN:VA;0)  2.98150E+02  -3235.3+127.85*T-23.7*T*LN(T)
  -.00744271*T**2+60000*T**(-1);  1.51900E+03  Y
   -23188.83+307.7043*T-48*T*LN(T)+1.265152E+30*T**(-9);  6.00000E+03  N !
 PARAMETER G(BCC_A2,SR:VA;0)  2.98140E+02  -6779.234+116.583654*T
  -25.6708365*T*LN(T)-.003126762*T**2+2.2965E-07*T**3+27649*T**(-1);  
  8.19990E+02  Y
   -6970.594+122.067301*T-26.57*T*LN(T)-.0019493*T**2-1.7895E-08*T**3
  +16495*T**(-1);  1.05000E+03  Y
   +8168.357+.423037*T-9.7788593*T*LN(T)-.009539908*T**2+5.20221E-07*T**3
  -2414794*T**(-1);  3.00000E+03  N !
 PARAMETER G(BCC_A2,MG:VA;0)  2.98150E+02  +3100-2.1*T+GHSERMG#;   
                                                       6.00000E+03   N !
 PARAMETER L(BCC_A2,MN,SR:VA;0)  2.98150E+02   74248; 
                                                     6.00000E+03   N !
 PARAMETER TC(BCC_A2,MN:VA;0)  2.98150E+02  -580;   6.00000E+03   N  !
 PARAMETER BMAGN(BCC_A2,MN:VA;0)  2.98150E+02  -.27;   6.00000E+03   N !
   PARAMETER G(BCC_A2,MG,SR:VA;0)  2.98150E+02  20000;   6.00000E+03   N  !
   PARAMETER G(BCC_A2,MG,MN:VA;0)  2.98150E+02  85000;   6.00000E+03   N  !
$
$-------------Phase HCP_A3-------------------
$
 PHASE HCP_A3  %  2  1  0.5  !
   CONSTITUENT HCP_A3  :MG,MN,SR : VA :  !

   PARAMETER G(HCP_A3,MG:VA;0)  2.98150E+02  +GHSERMG#;   6.00000E+03   N !
   PARAMETER G(HCP_A3,SR:VA;0)  2.98150E+02  +250+.7*T+GHSERSR#;   
  6.00000E+03   N !
   PARAMETER G(HCP_A3,MN:VA;0)  2.98150E+02  -4439.3+133.007*T
  -24.5177*T*LN(T)-.006*T**2+69600*T**(-1);  1.51900E+03  Y
   -27070.1+310.7894*T-48*T*LN(T)+3.86196E+30*T**(-9);  2.00000E+03  N  !
   PARAMETER TC(HCP_A3,MN:VA;0)  2.98150E+02  -1620;  2.00000E+03  N  !
   PARAMETER BMAGN(HCP_A3,MN:VA;0)  2.98150E+02  -1.86;  2.00000E+03  N !
   PARAMETER G(HCP_A3,MG,SR:VA;0)  2.98150E+02  10000;   6.00000E+03   N !
   PARAMETER G(HCP_A3,MG,MN:VA;0)  2.98150E+02  +37148.1-1.8103*T;   
  6.00000E+03   N  !
  PARAMETER G(HCP_A3,MN,SR:VA;0)  2.98150E+02  100000;   6.00000E+03   N !
$
$-------------Phase DHCP-------------------
$
 PHASE DHCP  %  1  1.0  !
    CONSTITUENT DHCP  :MG,MN :  !

   PARAMETER G(DHCP,MG;0)  2.98150E+02  +GHSERMG#+303.4;  4.00000E+03  N !
   PARAMETER G(DHCP,MN;0)  2.98150E+02  +10000+GHSERMN#;  3.80000E+03  N  !
   PARAMETER G(DHCP,MG,MN;0)  2.98150E+02  100000;   6.00000E+03   N !
$
$-------------Phase LAVES_C14-------------------
$
 PHASE LAVES_C14  %  2 2   1 !
    CONSTITUENT LAVES_C14  :MG,MN,SR : MG,MN,SR :  !

   PARAMETER G(LAVES_C14,MG:MG;0)  2.98140E+02  +15000+3*GHSERMG#;  
  3.00000E+03  N !
   PARAMETER G(LAVES_C14,SR:MG;0)  2.98150E+02  +108788+2*GHSERSR#+GHSERMG#; 
    6.00000E+03   N !
   PARAMETER G(LAVES_C14,MG:SR;0)  2.98150E+02  -29661+3.031*T+2*GHSERMG#
  +GHSERSR#;   6.00000E+03   N !
   PARAMETER G(LAVES_C14,SR:SR;0)  2.98150E+02  +21753+3*GHSERSR#;   
  6.00000E+03   N !
   PARAMETER G(LAVES_C14,MG,SR:SR;0)  2.98150E+02  35000;   6.00000E+03   N !
   PARAMETER G(LAVES_C14,MN:MN;0)  2.98150E+02  -21345.84+390.177*T
  -70.3746*T*LN(T)-.02204304*T**2+209481*T**(-1);  1.51900E+03  Y
   -83200.23+936.7944*T-144*T*LN(T)+4.97054E+30*T**(-9);  2.00000E+03  N  !
$---------------------------------------------------------
 PHASE MG17SR2  %  2 17   2 !
    CONSTITUENT MG17SR2  :MG : SR :  !

   PARAMETER G(MG17SR2,MG:SR;0)  2.98150E+02  -90039+14.054*T+17*GHSERMG#
  +2*GHSERSR#;   6.00000E+03   N  !


 PHASE MG23SR6  %  2 23   6 !
    CONSTITUENT MG23SR6  :MG : SR :  !

   PARAMETER G(MG23SR6,MG:SR;0)  2.98150E+02  -222032+37.283*T+23*GHSERMG#
  +6*GHSERSR#;   6.00000E+03   N !


 PHASE MG2Y  %  2 2   1 !
    CONSTITUENT MG2Y  :MG : MG :  !

   PARAMETER G(MG2Y,MG:MG;0)  2.98150E+02  +15000+3*GHSERMG#;   6.00000E+03  
   N !


 PHASE MG38SR9  %  2 38   9 !
    CONSTITUENT MG38SR9  :MG : SR :  !

   PARAMETER G(MG38SR9,MG:SR;0)  2.98150E+02  -338998+54.726*T+38*GHSERMG#
  +9*GHSERSR#;   6.00000E+03   N !

$
DATABASE_INFO 'The Mn-Sr system'!

