$ Nb-Ni-Si database, Santos et al 2015
$ Nb-Ni : Chen & Du, Calphad 2006 30 308
$ Nb-Si : Geng et al, Calphad 2010 34 363
$ Ni-Si : Miettinen, Calphad 2005 29 212

 ELEMENT /-   ELECTRON_GAS    0.0000  0.0000  0.0000 !
 ELEMENT VA   VACUUM          0.0000  0.0000  0.0000 !
 ELEMENT NB   BCC_A2          92.906  5220.0  36.270 !
 ELEMENT NI   FCC_A1          58.690  4787.0  29.796 !
 ELEMENT SI   DIAMOND_A4      28.085  3217.5  18.820 !

 TYPE_DEFINITION % SEQ *!
 DEFINE_SYSTEM_DEFAULT SPECIE 2 !
 DEFAULT_COMMAND DEF_SYS_ELEMENT VA !

$ ************************ Phase Definitions ************************

$ ************ Solution phases ************

$ ************ Liquid ************

 PHASE LIQUID:L %  1  1.0  !
  CONSTITUENT LIQUID:L :NI,NB,SI :  !

$ ************ fcc ************

 TYPE_DEFINITION A GES A_P_D FCC_A1 MAGNETIC  -3.0 0.28 !
 PHASE FCC_A1  %A  2 1   1 !
  CONSTITUENT FCC_A1  :NI%,NB,SI : VA% :  !

$ ************ bcc ************

 TYPE_DEFINITION B GES A_P_D BCC_A2 MAGNETIC  -1.0    0.4 !
 PHASE BCC_A2  %B  2 1   3 !
  CONSTITUENT BCC_A2  :NI,NB%,SI : VA% :  !

$ ************ diamond ************

 PHASE DIAMOND % 1 1.0 !
  CONSTITUENT DIAMOND :SI :  !

$ **************** from Nb-Ni ****************

$ ************ Ni3Nb ************

 PHASE NI3NB  %  2   3    1 !
  CONSTITUENT NI3NB  :NI%,NB : NI,NB% :  !

$ ************ NbNi8 ************

 PHASE NBNI8  %  2    1   8 !
  CONSTITUENT NBNI8  :NB% : NI% :  !

$ ************ Nb7Ni6 ************

 PHASE NB7NI6  %  4 0.076923077  0.307692308  0.153846154  0.461538462 !
  CONSTITUENT NB7NI6  :NB%,NI : NB% : NB%,NI,SI : NB,NI%,SI : !

$ **************** from Nb-Si ****************

$ ************ Nb3Si ************

 PHASE NB3SI  %  2   0.75    0.25 !
  CONSTITUENT NB3SI  :NB% : SI% :  !

$ ************ NbSi2 ************

 PHASE NBSI2  %  2   0.333    0.667 !
  CONSTITUENT NBSI2  :NB%,SI : SI% :  !

$ ************ L_Nb5Si3 ************$

 PHASE L_NB5SI3  %  2   0.625    0.375 !
  CONSTITUENT L_NB5SI3  :NB%,SI : SI% :  !

$ ************ H_Nb5Si3 ************$

 PHASE H_NB5SI3  %  3   0.5  0.125   0.375 !
  CONSTITUENT H_NB5SI3  :NB%: NB%,SI : NB,SI% :  !

$ **************** from Ni-Si ****************

$ ************ L_NI3SI ************$

 PHASE L_NI3SI  %  2   0.76    0.24 !
  CONSTITUENT L_NI3SI  :NI% : SI% :  !

$ ************ M_Ni3Si ************$

 PHASE M_NI3SI  %  2   0.75   0.25 !
  CONSTITUENT M_NI3SI  :NI% : SI% :  !

$ ************ H_Ni3Si ************$

 PHASE H_NI3SI  %  2   0.75   0.25  !
  CONSTITUENT H_NI3SI  :NI% : SI% :  !

$ ************ Ni5Si2 ************$

 PHASE NI5SI2  %  2   0.7143   0.2857  !
  CONSTITUENT NI5SI2  :NI% : SI% :  !

$ ************ D_Ni2Si ************$

 PHASE D_NI2SI  %  2   0.6667   0.3333  !
  CONSTITUENT D_NI2SI  :NI% : SI% :  !

$ ************ T_Ni2Si ************$

 PHASE T_NI2SI  %  3   1   1   1  !
  CONSTITUENT T_NI2SI  :NI% : NI%,VA : SI% :  !

$ ************ Ni3Si2 ************$

 PHASE NI3SI2  %  2   0.6   0.4  !
  CONSTITUENT NI3SI2  :NI% : SI% :  !

$ ************ NiSi ************$

 PHASE NISI  %  2   0.5   0.5  !
  CONSTITUENT NISI  :NI% : SI% :  !

$ ************ NiSi2 ************$

 PHASE NISI2  %  2   0.3333   0.6667  !
  CONSTITUENT NISI2  :NI% : SI% :  !

$ **************** ternary phases ****************

$ ************ E_NbNiSi ************$

  PHASE E_NBNISI  %  3   0.333333333  0.333333333  0.333333333  !
   CONSTITUENT E_NBNISI  :NB% : NI% : SI% :  !

$ ************ C14_Nb2Ni3Si ************$

  PHASE C14_NB2NI3SI  %  2   0.333333333   0.666666667  !
   CONSTITUENT C14_NB2NI3SI  :NB% : NI%,SI :  !

$ ************ V_Nb4Ni3Si7 ************$

  PHASE V_NB4NI3SI7  %  3   0.285714286 0.428571429 0.285714286  !
   CONSTITUENT V_NB4NI3SI7  :NB% : SI% : NI%,SI :  !

$* ************ V_Nb4Ni4Si7 ************$

$*  PHASE V_NB4NI4SI7  %  3   0.266666667 0.266666667 0.466666666  !
$*   CONSTITUENT V_NB4NI4SI7  :NB% : NI% : SI% :  !

$ ************ G_Nb6Ni16Si7 ************$

  PHASE G_NB6NI16SI7  %  3   0.206896552 0.551724138 0.24137931  !
   CONSTITUENT G_NB6NI16SI7  :NB% : NI% : SI% :  !

$ ************ T_Nb4NiSi ************$

  PHASE T_NB4NISI  %  3   0.666666666  0.166666667  0.166666667  !
   CONSTITUENT T_NB4NISI  :NB% : NI% : SI% :  !

$ ************ H_Nb3Ni2Si ************$

  PHASE H_NB3NI2SI  %  3   0.5 0.333333333  0.166666667  !
   CONSTITUENT H_NB3NI2SI  :NB% : NI% : SI% :  !

$ ************************ Parameters ************************

$ ***************** Reference states *****************

 FUNCTION GHSERNB    298.15  -8519.353+142.045475*T-26.4711*T*LN(T)
  +2.03475E-04*T**2-3.5012E-07*T**3+93399*T**(-1);  2750  Y
  -37669.3+271.720843*T-41.77*T*LN(T)+1.528238E+32*T**(-9);  6000  N !

 FUNCTION GHSERNI    298.15  -5179.159+117.854*T-22.096*T*LN(T)
  -.0048407*T**2;  1728  Y
  -27840.655+279.135*T-43.1*T*LN(T)+1.12754E+31*T**(-9);  3000  N   !

 FUNCTION GHSERSI  298.15  -8162.609+137.227259*T-22.8317533*T*LN(T)
  -.001912904*T**2-3.552E-09*T**3+176667*T**(-1);  1687  Y
  -9457.642+167.271767*T-27.196*T*LN(T)-4.20369E+30*T**(-9); 3600 N !

$ ******************* Phase parameters *******************

$ **************** Unary parameters ****************

$ *** Liquid ***

 PARAMETER G(LIQUID,NB;0)  298.15  +29781.555-10.816418*T
  -3.06098E-23*T**7+GHSERNB#;  2750  Y
  +30169.902-10.964695*T-1.528238E+32*T**(-9)+GHSERNB#;
  6000 N  1991DIN !

 PARAMETER G(LIQUID,NI;0)  298.15  +11235.527+108.457*T
  -22.096*T*LN(T)-.0048407*T**2-3.82318E-21*T**7;  1728  Y
   -9549.775+268.598*T-43.1*T*LN(T);  3000  N  1991DIN !

 PARAMETER G(LIQUID,SI;0) 298.15 GHSERSI#
  +50696.36-30.099439*T+2.09307E-21*T**7;  1687  Y
  +49828.165-29.559069*T+4.20369E+30*T**(-9)+GHSERSI#; 3600 N  1991DIN !

$ *** fcc ***

 PARAMETER G(FCC_A1,NB:VA;0) 298.15 +13500+1.7*T+GHSERNB#;
  6000 N 1991DIN !

 PARAMETER G(FCC_A1,NI:VA;0)  298.15  +GHSERNI#;  6000   N   1991DIN !
 PARAMETER TC(FCC_A1,NI:VA;0)  298.15  633;       6000   N   1991DIN !
 PARAMETER BMAGN(FCC_A1,NI:VA;0)  298.15  0.52;   6000   N   1991DIN !

 PARAMETER G(FCC_A1,SI:VA;0) 298.15 +51000-21.8*T+GHSERSI#;
  6000 N 1991DIN !

$ *** bcc ***

 PARAMETER G(BCC_A2,NB:VA;0)  298.15  +GHSERNB#;   6000   N   1991DIN !

 PARAMETER G(BCC_A2,NI:VA;0)  298.15 +8715.084-3.556*T+GHSERNI#;
  3000 N 1991DIN !
 PARAMETER TC(BCC_A2,NI:VA;0)     298.15  575;   6000   N   1991DIN !
 PARAMETER BMAGN(BCC_A2,NI:VA;0)  298.15  .85;   6000   N   1991DIN !

 PARAMETER G(BCC_A2,SI:VA;0) 298.15 +47000-22.5*T+GHSERSI#;
  6000 N 1991DIN !

$ *** diamond ***

 PARAMETER G(DIAMOND,SI;0)   298.15  GHSERSI#; 3600 N  1991DIN !

$ **************** Binary parameters ****************

$ ****** Nb-Ni: ~\citet{Chen2006}~ ******

$ *** liq ***

 PARAMETER L(LIQUID,NI,NB;0)  298.15  -74555-12.00495*T;
  6000  N  2006CHE !
 PARAMETER L(LIQUID,NI,NB;1)  298.15  +31039+19*T;
  6000  N  2006CHE !
 PARAMETER L(LIQUID,NI,NB;2)  298.15  42510-28.68081*T;
  6000  N  2006CHE !

$ *** fcc ***

 PARAMETER L(FCC_A1,NI,NB:VA;0)  298.15  -36499-15.24689*T;
  6000  N  2006CHE !
 PARAMETER L(FCC_A1,NI,NB:VA;1)  298.15  +94812;
  6000  N  2006CHE !
 PARAMETER TC(FCC_A1,NI,NB:VA;0) 298.15  -1200;
  6000  N  2006CHE !
 PARAMETER TC(FCC_A1,NI,NB:VA;1) 298.15  -760;
  6000  N  2006CHE !
 PARAMETER BMAGN(FCC_A1,NI,NB:VA;0)  298.15    0.0;
  6000  N  2006CHE !
 PARAMETER BMAGN(FCC_A1,NI,NB:VA;1)  298.15    0.0;
  6000  N  2006CHE !

$ *** bcc ***

 PARAMETER L(BCC_A2,NI,NB:VA;0)  298.15  -22463+4.89296*T;
  6000 N  2006CHE !

$ *** Ni3NB ***

$ Note: There is a name conflict, so change it.
$ FUNCTION NB3NB 298.15 20000+4*GHSERNB; 3000 N !
$ FUNCTION NI3NI 298.15 20000+4*GHSERNI; 3000 N !
$ FUNCTION NI3NB 298.15 -123184+5.86640*T+GHSERNB+3*GHSERNI; 3000 N !
$ FUNCTION NB3NI 298.15 NB3NB+NI3NI-NI3NB; 3000 N !
 FUNCTION FNB3NB 298.15 20000+4*GHSERNB; 3000 N !
 FUNCTION FNI3NI 298.15 20000+4*GHSERNI; 3000 N !
 FUNCTION FNI3NB 298.15 -123184+5.86640*T+GHSERNB+3*GHSERNI; 3000 N !
 FUNCTION FNB3NI 298.15 FNB3NB+FNI3NI-FNI3NB; 3000 N !

$ Note: There is a name conflict, so change it.
$ PARAMETER G(NI3NB,NI:NI;0)   298.15  NI3NI;  6000 N  2006CHE !
$ PARAMETER G(NI3NB,NB:NB;0)   298.15  NB3NB;  6000 N  2006CHE !
$ PARAMETER G(NI3NB,NI:NB;0)   298.15  NI3NB;  6000 N  2006CHE !
$ PARAMETER G(NI3NB,NB:NI;0)   298.15  NB3NI;  6000 N  2006CHE !
 PARAMETER G(NI3NB,NI:NI;0)   298.15  FNI3NI;  6000 N  2006CHE !
 PARAMETER G(NI3NB,NB:NB;0)   298.15  FNB3NB;  6000 N  2006CHE !
 PARAMETER G(NI3NB,NI:NB;0)   298.15  FNI3NB;  6000 N  2006CHE !
 PARAMETER G(NI3NB,NB:NI;0)   298.15  FNB3NI;  6000 N  2006CHE !

 PARAMETER L(NI3NB,NI,NB:*;0) 298.15  64712;  6000 N  2006CHE !
 PARAMETER L(NI3NB,*:NI,NB;0) 298.15  -2480;  6000 N  2006CHE !

$ *** NbNi8 ***

 PARAMETER G(NBNI8,NB:NI;0)   298.15  -128556+4.54104*T
  +GHSERNB#+8*GHSERNI#;  6000 N  2006CHE !

$ *** Nb7Ni6 ***

 FUNCTION NBNBNBNB  298.15  +5000+GHSERNB;            6000  N  !
 FUNCTION NBNBNBNI  298.15  -21962
  +0.538461538*GHSERNB+0.461538462*GHSERNI;  6000  N  !
 FUNCTION NINBNBNI  298.15  -6216
  +0.461538462*GHSERNB+0.538461538*GHSERNI;   6000  N  !
 FUNCTION NINBNINB  298.15  +55542
  +0.769230769*GHSERNB+0.230769231*GHSERNI; 6000  N  !
 FUNCTION NBNBNINB  298.15  +NBNBNBNI+NINBNINB-NINBNBNI;  6000  N  !
 FUNCTION NBNBNINI  298.15  +NBNBNBNI+NINBNINI-NINBNBNI;  6000  N  !
 FUNCTION NINBNBNB  298.15  +NINBNBNI+NBNBNBNB-NBNBNBNI;  6000  N  !
 FUNCTION NINBNINI  298.15  +NINBNINB+NBNBNBNI-NBNBNBNB;  6000  N  !

 PARAMETER G(NB7NI6,NB:NB:NB:NI;0) 298.15 +NBNBNBNI;  6000 N  2006CHE !
 PARAMETER G(NB7NI6,NI:NB:NB:NI;0) 298.15 +NINBNBNI;  6000 N  2006CHE !
 PARAMETER G(NB7NI6,NI:NB:NI:NB;0) 298.15 +NINBNINB;  6000 N  2006CHE !
 PARAMETER G(NB7NI6,NB:NB:NB:NB;0) 298.15 +NBNBNBNB;  6000 N  2006CHE !
 PARAMETER G(NB7NI6,NI:NB:NB:NB;0) 298.15 +NINBNBNB;  6000 N  2006CHE !
 PARAMETER G(NB7NI6,NI:NB:NI:NI;0) 298.15 +NINBNINI;  6000 N  2006CHE !
 PARAMETER G(NB7NI6,NB:NB:NI:NB;0) 298.15 +NBNBNINB;  6000 N  2006CHE !
 PARAMETER G(NB7NI6,NB:NB:NI:NI;0) 298.15 +NBNBNINI;  6000 N  2006CHE !

 PARAMETER L(NB7NI6,NI,NB:NB:NB:NB;0) 298.15 -22062;  6000 N  2006CHE !
 PARAMETER L(NB7NI6,NI,NB:NB:NB:NI;0) 298.15 -22062;  6000 N  2006CHE !
 PARAMETER L(NB7NI6,NI,NB:NB:NI:NB;0) 298.15 -22062;  6000 N  2006CHE !
 PARAMETER L(NB7NI6,NI,NB:NB:NI:NI;0) 298.15 -22062;  6000 N  2006CHE !

 PARAMETER L(NB7NI6,NB:NB:NB,NI:NB;0) 298.15 -41939;  6000 N  2006CHE !
 PARAMETER L(NB7NI6,NB:NB:NB,NI:NI;0) 298.15 -41939;  6000 N  2006CHE !
 PARAMETER L(NB7NI6,NI:NB:NB,NI:NB;0) 298.15 -41939;  6000 N  2006CHE !
 PARAMETER L(NB7NI6,NI:NB:NB,NI:NI;0) 298.15 -41939;  6000 N  2006CHE !

 PARAMETER L(NB7NI6,NB:NB:NB:NB,NI;0) 298.15   9067;  6000 N  2006CHE !
 PARAMETER L(NB7NI6,NB:NB:NI:NB,NI;0) 298.15   9067;  6000 N  2006CHE !
 PARAMETER L(NB7NI6,NI:NB:NB:NB,NI;0) 298.15   9067;  6000 N  2006CHE !
 PARAMETER L(NB7NI6,NI:NB:NI:NB,NI;0) 298.15   9067;  6000 N  2006CHE !

$ ****** Nb-Si: ~\citet{Geng2010}~ ******$

$ *** liquid ***

 PARAMETER L(LIQUID,NB,SI;0)  298.15  -199000; 6000  N  2010GEN !
 PARAMETER L(LIQUID,NB,SI;1)  298.15  -18800;  6000  N  2010GEN !
 PARAMETER L(LIQUID,NB,SI;2)  298.15  +50000;  6000  N  2010GEN !

$ *** bcc ***

 PARAMETER L(BCC_A2,NB,SI:VA;0)  298.15  -151178; 6000  N  2010GEN !
 PARAMETER L(BCC_A2,NB,SI:VA;1)  298.15  -15915;  6000  N  2010GEN !
 PARAMETER L(BCC_A2,NB,SI:VA;2)  298.15  +40000;  6000  N  2010GEN !

$ *** Nb3Si ***

 PARAMETER G(NB3SI,NB:SI;0) 298.15 -33357-6.45*T
  +0.75*GHSERNB#+0.25*GHSERSI#;  6000 N  2010GEN !

$ *** NbSi2 ***

 PARAMETER G(NBSI2,NB:SI;0) 298.15 +0.333*GHSERNB#+0.667*GHSERSI#
  -51200-5*T; 6000 N  2010GEN !
 PARAMETER G(NBSI2,SI:SI;0) 298.15 +5000+GHSERSI#; 6000 N  2010GEN !

 PARAMETER L(NBSI2,NB,SI:SI;0) 298.15 +12919+4.2662*T;  6000 N 2010GEN !

$ *** L_Nb5Si3 ***

 PARAMETER G(L_NB5SI3,NB:SI;0) 298.15 +0.625*GHSERNB#+0.375*GHSERSI#
  -63001.35-2.9*T; 6000 N  2010GEN !
 PARAMETER G(L_NB5SI3,SI:SI;0) 298.15 +5000+GHSERSI#; 6000 N  2010GEN !

 PARAMETER L(L_NB5SI3,NB,SI:SI;0)  298.15  -12226;  6000  N  2010GEN !

$ *** H_Nb5Si3 ***

 PARAMETER G(H_NB5SI3,NB:NB:NB;0) 298.15 +GHSERNB#
  +5000; 6000 N  2010GEN !
 PARAMETER G(H_NB5SI3,NB:NB:SI;0) 298.15 +0.625*GHSERNB#+0.375*GHSERSI#
  -50636.5-8.5*T; 6000 N  2010GEN !
 PARAMETER G(H_NB5SI3,NB:SI:NB;0) 298.15 +0.875*GHSERNB#+0.125*GHSERSI#
  +5000; 6000 N  2010GEN !
 PARAMETER G(H_NB5SI3,NB:SI:SI;0) 298.15 +0.5*GHSERNB#+0.5*GHSERSI#
  -18312-15.2836*T; 6000 N  2010GEN !

 PARAMETER L(H_NB5SI3,NB:NB,SI:SI;0)  298.15  -24318;  6000  N 2010GEN !
 PARAMETER L(H_NB5SI3,NB:NB,SI:NB;0)  298.15  -24318;  6000  N 2010GEN !
 PARAMETER L(H_NB5SI3,NB:SI:NB,SI;0)  298.15  +45000;  6000  N 2010GEN !
 PARAMETER L(H_NB5SI3,NB:NB:NB,SI;0)  298.15  +45000;  6000  N 2010GEN !

$ ****** Ni-Si: ~\citet{Miettinen2005}~ ******

$ *** liquid ***

 PARAMETER L(LIQUID,NI,SI;0) 298.15 -205000+33*T; 6000  N  2005MIE !
 PARAMETER L(LIQUID,NI,SI;1) 298.15 -102700+27*T; 6000  N  2005MIE !
 PARAMETER L(LIQUID,NI,SI;2) 298.15 +25000;       6000  N  2005MIE !
 PARAMETER L(LIQUID,NI,SI;3) 298.15 117000-55*T;  6000  N  2005MIE !

$ *** fcc ***

 PARAMETER L(FCC_A1,NI,SI:VA;0) 298.15 -205000+30*T; 6000  N  2005MIE !
 PARAMETER L(FCC_A1,NI,SI:VA;1) 298.15 -52000+20*T;  6000  N  2005MIE !


$ *** L_NI3SI ***

 PARAMETER G(L_NI3SI,NI:SI;0) 298.15 0.76*GHSERNI#+0.24*GHSERSI
  -41632+4.8*T; 6000 N  2005MIE !

$ *** M_Ni3Si ***

 PARAMETER G(M_NI3SI,NI:SI;0) 298.15 0.75*GHSERNI#+0.25*GHSERSI#
  -40465+3*T; 6000 N  2005MIE !

$ *** H_Ni3Si ***

 PARAMETER G(H_NI3SI,NI:SI;0) 298.15 0.75*GHSERNI#+0.25*GHSERSI#
  -33110-2.3*T; 6000 N  2005MIE !

$ *** Ni5Si2 ***

 PARAMETER G(NI5SI2,NI:SI;0) 298.15 0.7143*GHSERNI#+0.2857*GHSERSI#
  -43170+2*T; 6000 N  2005MIE !

$ *** D_Ni2Si ***

 PARAMETER G(D_NI2SI,NI:SI;0) 298.15 0.6667*GHSERNI#+0.3333*GHSERSI#
  -48800+62.165*T-8*T*LN(T); 6000 N  2005MIE !

$ *** T_Ni2Si ***

 PARAMETER G(T_NI2SI,NI:NI:SI;0) 298.15 2*GHSERNI#+GHSERSI#
  -110000-13*T; 6000 N  2005MIE !
 PARAMETER G(T_NI2SI,NI:VA:SI;0) 298.15 GHSERNI#+GHSERSI#
  -75600+1.3*T; 6000 N  2005MIE !

 PARAMETER L(T_NI2SI,NI:NI,VA:SI;0) 298.15 +10000; 6000 N  2005MIE !

$ *** Ni3Si2 ***

 PARAMETER G(NI3SI2,NI:SI;0) 298.15  0.6*GHSERNI#+0.4*GHSERSI#
  -43300+1.7*T; 6000 N  2005MIE !

$ *** NiSi ***

 PARAMETER G(NISI,NI:SI;0) 298.15  0.5*GHSERNI#+0.5*GHSERSI#
  -40300+0.6*T; 6000 N  2005MIE !

$ *** NiSi2 ***

 PARAMETER G(NISI2,NI:SI;0) 298.15  0.33333*GHSERNI#+0.6667*GHSERSI#
  -35600+6*T; 6000 N  2005MIE !

$ **************** Ternary parameters ****************

$ *** fcc ***

 PARAMETER L(FCC_A1,NB,NI,SI:VA;0) 298.15 +146812-20*T; 6000 N  2015ELE !
 PARAMETER TC(FCC_A1,NI,NB,SI:VA;0)  298.15  760;       6000   N   2015ELE !
 PARAMETER BMAGN(FCC_A1,NI,NB,SI:VA;0)  298.15  0;   6000   N   2015ELE !

$ *** Nb7Ni6 ***

 PARAMETER G(NB7NI6,NB:NB:NB:SI;0) 298.15 -37677
  +0.538461538*GHSERNB#+0.461538462*GHSERSI#; 6000 N 2015ELE !
 PARAMETER G(NB7NI6,NB:NB:NI:SI;0) 298.15 -30266
  +0.38461539*GHSERNB#+0.15384615*GHSERNI#+0.46153846*GHSERSI#;
  6000 N 2015ELE !
 PARAMETER G(NB7NI6,NB:NB:SI:NB;0) 298.15 6880
  +0.846153846*GHSERNB#+0.153846154*GHSERSI#; 6000 N 2015ELE !
 PARAMETER G(NB7NI6,NB:NB:SI:NI;0) 298.15 -25234
  +0.38461539*GHSERNB#+0.46153846*GHSERNI#+0.15384615*GHSERSI#;
  6000 N 2015ELE !
 PARAMETER G(NB7NI6,NB:NB:SI:SI;0) 298.15 -18505
  +0.384615385*GHSERNB#+0.615384615*GHSERSI#; 6000 N 2015ELE !

 PARAMETER G(NB7NI6,NI:NB:NB:SI;0) 298.15 -47317
  +0.46153846*GHSERNB#+0.07692308*GHSERNI#+0.46153846*GHSERSI#;
  6000 N 2015ELE !
 PARAMETER G(NB7NI6,NI:NB:NI:SI;0) 298.15 -38937
  +0.30769231*GHSERNB#+0.23076923*GHSERNI#+0.46153846*GHSERSI#;
  6000 N 2015ELE !
 PARAMETER G(NB7NI6,NI:NB:SI:NB;0) 298.15 4357
  +0.76923077*GHSERNB#+0.07692308*GHSERNI#+0.15384615*GHSERSI#;
  6000 N 2015ELE !
 PARAMETER G(NB7NI6,NI:NB:SI:NI;0) 298.15 21651
  +0.30769231*GHSERNB#+0.53846154*GHSERNI#+0.15384615*GHSERSI#;
  6000 N 2015ELE !
 PARAMETER G(NB7NI6,NI:NB:SI:SI;0) 298.15 -25745
  +0.30769231*GHSERNB#+0.07692308*GHSERNI#+0.61538462*GHSERSI#;
  6000 N 2015ELE !


$ *******************************************
$ other ternary parameters
$ *******************************************

 FUNCTION F11 298.15  3.73*T;  6000 N !
 FUNCTION F12 298.15 -2.80*T;  6000 N !
 FUNCTION F13 298.15 -22.4*T;   6000 N !
 FUNCTION F21 298.15  4.19*T;  6000 N !
 FUNCTION F31 298.15 -0.93*T;  6000 N !
 FUNCTION F32 298.15 -0.93*T;  6000 N !
 FUNCTION F33 298.15 -83000;   6000 N !
 FUNCTION F41 298.15 -2.80*T;  6000 N !
 FUNCTION F51 298.15 -2.24*T;  6000 N !
 FUNCTION F61 298.15 -7.27*T;  6000 N !
 FUNCTION F71 298.15 -57000;   6000 N !
 FUNCTION F72 298.15 -120000;  6000 N !
 FUNCTION F73 298.15 -120000; 6000 N !

  PARAMETER G(T_NB4NISI,NB:NI:SI;0)  2.98150E+02  -37714+F51#
   +.66666*GHSERNB#+.16667*GHSERNI#+.16667*GHSERSI#;   6.00000E+03   N 2015ELE !

  PARAMETER G(C14_NB2NI3SI,NB:NI;0)  2.98150E+02  -23373+F11#
   +.33333*GHSERNB#+.66667*GHSERNI#;   6.00000E+03   N 2015ELE !
  PARAMETER G(C14_NB2NI3SI,NB:SI;0)  2.98150E+02  -5351+F12#
   +.33333*GHSERNB#+.66667*GHSERSI#;   6.00000E+03   N 2015ELE !
  PARAMETER G(C14_NB2NI3SI,NB:NI,SI;0)  2.98150E+02  -161870+F13#;
   6.00000E+03   N 2015ELE !

  PARAMETER G(E_NBNISI,NB:NI:SI;0)  2.98150E+02  -73473+F21#
   +.33333*GHSERNB#+.33333*GHSERNI#+.33333*GHSERSI#;  6.00000E+03  N 2015ELE !

  PARAMETER G(G_NB6NI16SI7,NB:NI:SI;0)  2.98150E+02  -54144+F41#
   +.2069*GHSERNB#+.55172*GHSERNI#+.24138*GHSERSI#;  6.00000E+03  N 2015ELE !

  PARAMETER G(H_NB3NI2SI,NB:NI:SI;0)  2.98150E+02  -41291+F61#+.5*GHSERNB#
   +.33333*GHSERNI#+.16667*GHSERSI#;  6.00000E+03  N 2015ELE !

  PARAMETER G(NB7NI6,*:NB:NB:NI,SI;0)  2.98150E+02  +F71#;   6.00000E+03
   N 2015ELE !
  PARAMETER G(NB7NI6,*:NB:NI:NI,SI;0)  2.98150E+02  +F72#;   6.00000E+03
   N 2015ELE !
  PARAMETER G(NB7NI6,*:NB:SI:NI,SI;0)  2.98150E+02  +F73#;   6.00000E+03
   N 2015ELE !

  PARAMETER G(V_NB4NI3SI7,NB:SI:NI;0)  2.98150E+02  -60113+F31#
   +.28571*GHSERNB#+.28571*GHSERNI#+.42858*GHSERSI#;  6.00000E+03  N 2015ELE !
  PARAMETER G(V_NB4NI3SI7,NB:SI:SI;0)  2.98150E+02  +698+F32#
   +.28571*GHSERNB#+.71429*GHSERSI#;   6.00000E+03   N 2015ELE !
  PARAMETER G(V_NB4NI3SI7,NB:SI:NI,SI;0)  2.98150E+02  +F33#;   6.00000E+03
    N 2015ELE !


$ ************************ List of references ************************

 LIST_OF_REFERENCES
   NUMBER SOURCE
   1991DIN  'Dinsdale, Calphad 1991 15 137'
   2006CHE  'Chen and Du, Calphad 2006 30 308'
   2010GEN  'Geng et al, Calphad 2010 14 363'
   2005MIE  'Miettinen, Calphad 2005 29 212'
   2015ELE  'Santos et al (2015) (this work)'
   !

$ ************************ Information ************************

 DATABASE_INFO Nb-Ni-Si database by Santos, Petrilli, Schon, Eleno (2015)
 !
