
$ Database file written 18- 7- 31

$ 
ELEMENT /-   ELECTRON_GAS              0.0000E+00  0.0000E+00  0.0000E+00!
ELEMENT VA   VACUUM                    0.0000E+00  0.0000E+00  0.0000E+00!
ELEMENT CE   FCC_A1                    1.4011E+02  0.0000E+00  0.0000E+00!
ELEMENT CO   HCP_A3                    5.8933E+01  0.0000E+00  0.0000E+00!
ELEMENT SB   RHOMBOHEDRAL_A7           1.2175E+02  5.8702E+03  4.5522E+01!
 

 FUNCTION GHSERCE    2.98140E+02  -7160.519+84.23022*T-22.3664*T*LN(T)
 -.0067103*T**2-3.20773E-07*T**3-18117*T**(-1);  1.00000E+03    Y
 -79678.506+659.4604*T-101.32248*T*LN(T)+.026046487*T**2
 -1.930297E-06*T**3+11531707*T**(-1);  2.00000E+03    Y
 -14198.639+190.370192*T-37.6978*T*LN(T);  4.00000E+03    N !
 FUNCTION GHSERCO    2.98140E+02  +310.241+133.36601*T-25.0861*T*LN(T)
 -.002654739*T**2-1.7348E-07*T**3+72527*T**(-1);  1.76800E+03  Y
 -17197.666+253.28374*T-40.5*T*LN(T)+9.3488E+30*T**(-9);  6.00000E+03  N !
 FUNCTION GHSERSB    2.98140E+02  -9242.858+156.154689*T-30.5130752*T*LN(T)
 +.007748768*T**2-3.003415E-06*T**3+100625*T**(-1);  9.03780E+02  Y
 -11738.83+169.485872*T-31.38*T*LN(T)+1.616849E+27*T**(-9);  
 2.00000E+03  N !

 FUNCTION GCOFCC     2.98150E+02  +427.59-.615248*T+GHSERCO#;   6.00000E+03  
 N !
FUNCTION GCOBCC     2.98150E+02  +2938-.7138*T+GHSERCO#;   6.00000E+03   N !
 
FUNCTION UN_ASS 298.15 0; 300 N !

FUNCTION GHSERSBLOW   2.98150E+02   -9242.858+156.154689*T
 -30.5130752*T*LN(T)
 +0.007748768*T**2-3.003415E-6*T**3+100625*T**(-1); 
  6.00000E+03  N !

TYPE_DEFINITION % SEQ *! 
DEFINE_SYSTEM_DEFAULT SPECIE 2 !
DEFAULT_COMMAND DEF_SYS_ELEMENT VA !


PHASE LIQUID  %  1  1.0  !
CONSTITUENT LIQUID  :CE,CO,SB :  !

PARAMETER G(LIQUID,CE;0)  2.98140E+02    4117.865-11.423898*T
 -7.5383948*T*LN(T)-.02936407*T**2+4.827734E-06*T**3-198834*T**(-1);  
 1.00000E+03  Y
 -6730.605+183.023193*T-37.6978*T*LN(T);  2.00000E+03  Y
  +7468.034-7.346999*T+GHSERCE#;  4.00000E+03  N REF:0 !
PARAMETER G(LIQUID,CO;0)  2.98140E+02  +15085.037-8.931932*T+GHSERCO#
 -2.19801E-21*T**7;  1.76800E+03  Y
 -846.61+243.599944*T-40.5*T*LN(T);  6.00000E+03  N REF:0 !
PARAMETER G(LIQUID,SB;0)  2.98140E+02  +19822.328-21.923164*T+GHSERSB#
-1.74847E-20*T**7;  9.03780E+02  Y
 +8175.359+147.455986*T-31.38*T*LN(T);  2.00000E+03  N REF:0 !


PARAMETER G(LIQUID,CE,CO;0)  2.98150E+02  -71568+6.602*T;
  6.00000E+03   N REF:0 !
PARAMETER G(LIQUID,CE,CO;1)  2.98150E+02  14549-1.661*T;
  6.00000E+03   N REF:0 !
PARAMETER G(LIQUID,CE,CO;2)  2.98150E+02  11600-1.56*T;
  6.00000E+03   N REF:0 !

PARAMETER G(LIQUID,CE,SB;0)  2.98140E+02 
   -313312.917*EXP(-9.03812E-05*T)
   +79.4179*T*EXP(-9.03812E-05*T);  
    6.00000E+03  N REF:0 !
PARAMETER G(LIQUID,CE,SB;1)  2.98140E+02  1520.615;  
  2.00000E+03  N REF:0 !
PARAMETER G(LIQUID,CE,SB;2)  2.98140E+02  48727.95;  
  2.00000E+03  N REF:0 ! 
PARAMETER G(LIQUID,CO,SB;0)  2.98140E+02  +8001.6-27.8*T; 
  2.00000E+03 N REF:0 !
PARAMETER G(LIQUID,CO,SB;1)  2.98140E+02  -23400+20.6*T; 
  2.00000E+03 N REF:0 !
PARAMETER G(LIQUID,CO,SB;2)  2.98140E+02  13708-4.5*T; 
  2.00000E+03 N REF:0 !
PARAMETER G(LIQUID,CE,CO,SB;0)  2.98140E+02  -138643+22.7672*T; 
  2.00000E+03 N REF:0 !
PARAMETER G(LIQUID,CE,CO,SB;1)  2.98140E+02  -121410+3.1361*T; 
  2.00000E+03 N REF:0 !
PARAMETER G(LIQUID,CE,CO,SB;2)  2.98140E+02  -15176+5.19575*T; 
  2.00000E+03 N REF:0 !   





TYPE_DEFINITION & GES A_P_D BCC_A2 MAGNETIC  -1.0    4.00000E-01 !
PHASE BCC_A2  %&   1  1.0  !
CONSTITUENT BCC_A2  :CE,CO,SB :  !

PARAMETER G(BCC_A2,CE;0)  2.98140E+02  -1354.69-5.21501*T
-7.7305867*T*LN(T)-.029098402*T**2+4.784299E-06*T**3-196303*T**(-1);  
 1.00000E+03  Y
 -12101.106+187.449688*T-37.6142*T*LN(T);  1.07200E+03  Y
 -11950.375+186.333811*T-37.4627992*T*LN(T)-5.7145E-05*T**2+2.348E-09*T**3
-25897*T**(-1);  4.00000E+03  N REF:0 !
PARAMETER G(BCC_A2,CO;0)  2.98150E+02  +GCOBCC#;   6.00000E+03   N 
REF:0 !
PARAMETER G(BCC_A2,SB;0)  2.98140E+02  +19874-15.1*T+GHSERSB#;  
  2.00000E+03  N REF:0 !

PARAMETER TC(BCC_A2,CO;0)  2.98150E+02  1450;   6.00000E+03   N REF:0 !
PARAMETER BMAGN(BCC_A2,CO;0)  2.98150E+02  1.35;   6.00000E+03   N 
REF:0 !   
   
PARAMETER G(BCC_A2,CE,CO;0)  2.98150E+02  +1000000;
  6.00000E+03   N REF:0 !
PARAMETER G(BCC_A2,CE,SB;0)  2.98140E+02  -196428.06+30.43*T;  
  6.00000E+03  N REF:0 !  
PARAMETER G(BCC_A2,CO,SB;0)  2.98140E+02  5000;  
  6.00000E+03  N REF:0 !
PARAMETER G(BCC_A2,CE,CO,SB;0)  2.98140E+02  -277000+6.2*T;  
  6.00000E+03  N REF:0 !

TYPE_DEFINITION ( GES A_P_D FCC_A1 MAGNETIC  -3.0  2.8E-01  !
PHASE FCC_A1  %(  1   1.0 !
CONSTITUENT FCC_A1  :CE,CO,SB : !

PARAMETER G(FCC_A1,CE;0)  2.98140E+02  +GHSERCE#;  4.00000E+03  N 
REF:0 !
PARAMETER G(FCC_A1,CO;0)  2.98150E+02  +GCOFCC#;   6.00000E+03   N 
REF:0 !
PARAMETER G(FCC_A1,SB;0)  2.98140E+02  +19874-13.7*T+GHSERSB#;  
  2.00000E+03  N REF:0 !

PARAMETER TC(FCC_A1,CO;0)  2.98150E+02  1396;   6.00000E+03   N REF:0 !
PARAMETER BMAGN(FCC_A1,CO;0)  2.98150E+02  1.35;   6.00000E+03   N 
REF:0 !

PARAMETER G(FCC_A1,CE,CO;0)  2.98150E+02  -2127;
  6.00000E+03   N REF:0 !
PARAMETER G(FCC_A1,CE,SB;0)  2.98140E+02  854663.44;  
  2.00000E+03  N REF:0 !

PARAMETER G(FCC_A1,CO,SB;0)  2.98140E+02  21458.825-27.52*T;  
  2.00000E+03  N REF:0 !
PARAMETER G(FCC_A1,CO,SB;1)  2.98140E+02  -33494.8+13.2728*T;  
  2.00000E+03  N REF:0 !
PARAMETER G(FCC_A1,CO,SB;2)  2.98140E+02  12842+10.19025*T;  
  2.00000E+03  N REF:0 !
PARAMETER G(FCC_A1,CE,CO,SB;0)  2.98140E+02  -28630+20*T;  
  6.00000E+03  N REF:0 !

   
TYPE_DEFINITION ) GES A_P_D HCP_A3 MAGNETIC  -3.0    2.80000E-01 !
PHASE HCP_A3  %)   1   1.0 !
CONSTITUENT HCP_A3  :CE,CO,SB : !

PARAMETER G(HCP_A3,CE;0)  2.98140E+02   -6860.519+84.23022*T
-22.3664*T*LN(T)-.0067103*T**2-3.20773E-07*T**3-18117*T**(-1);  
 1.00000E+03  Y
  -79378.506+659.4604*T-101.32248*T*LN(T)+.026046487*T**2-1.930297E-06*T**3
 +11531707*T**(-1);  2.00000E+03  Y
  -13898.639+190.370192*T-37.6978*T*LN(T);  4.00000E+03  N PURE4   !
PARAMETER G(HCP_A3,CO;0)  2.98150E+02  +GHSERCO#;   6.00000E+03   N 
REF:0 !  
PARAMETER G(HCP_A3,SB;0)  2.98140E+02  +19874-13*T+GHSERSB#;  
  2.00000E+03  N REF:0 !  

PARAMETER TC(HCP_A3,CO;0)  2.98150E+02  1396;   6.00000E+03   N REF:0 !
PARAMETER BMAGN(HCP_A3,CO;0)  2.98150E+02  1.35;   6.00000E+03   N 
REF:0 !

PARAMETER G(HCP_A3,CE,CO;0)  2.98150E+02  +1000000;
  6.00000E+03   N REF:0 !
PARAMETER G(HCP_A3,CO,SB;0)  2.98140E+02  5000;  
  2.00000E+03  N REF:0 !

PHASE CO11CE24  %  2 0.3143   0.6857 !
CONSTITUENT CO11CE24  :CO : CE :  !
PARAMETER G(CO11CE24,CO:CE;0)  2.98150E+02  
 -13433.23+1.7245*T+0.6857*GHSERCE#+0.3143*GHSERCO#;
  6.00000E+03   N REF:0 !


PHASE CO2CE  %  2 0.6667  0.3333 !
CONSTITUENT CO2CE  :CO : CE : !
PARAMETER G(CO2CE,CO:CE;0)  2.98150E+02  
 -23916.996+2.889*T+0.3333*GHSERCE#+0.6667*GHSERCO#;
  6.00000E+03   N REF:0 !


PHASE CO3CE  %  2 0.75   0.25 !
CONSTITUENT CO3CE  :CO : CE :  !
PARAMETER G(CO3CE,CO:CE;0)  2.98150E+02  
 -26522.3+6.4237*T+0.75*GHSERCO#+0.25*GHSERCE#;
  6.00000E+03   N REF:0 !

PHASE CO7CE2  %  2 0.7778   0.2222 !
CONSTITUENT CO7CE2  :CO : CE :  !
PARAMETER G(CO7CE2,CO:CE;0)  2.98150E+02  
 -27390.33+7.7505*T+0.2222*GHSERCE#+0.7778*GHSERCO#;
  6.00000E+03   N REF:0 !


PHASE CO19CE5  %  2 0.7917   0.2083 !
CONSTITUENT CO19CE5  :CO : CE :  !
PARAMETER G(CO19CE5,CO:CE;0)  2.98150E+02  
 -27799.53+8.47352*T+0.2083*GHSERCE#+0.7917*GHSERCO#;
  6.00000E+03   N REF:0 !



PHASE CECO5 % 2  0.1667   0.8333 !
CONSTITUENT CECO5   :CE : CO :  !
PARAMETER G(CECO5,CE:CO;0)  2.98150E+02   
 -22156.5+5.9776*T+0.1667*GHSERCE#+0.8333*GHSERCO#; 
  6.00000E+03  N  REF:0  !

PHASE CE2CO17 % 2  0.1053   0.8947 !
CONSTITUENT CE2CO17   :CE : CO :  !
PARAMETER G(CE2CO17,CE:CO;0)  2.98150E+02   
 -17976.95+5.9738*T+0.1053*GHSERCE#+0.8947*GHSERCO#; 
  6.00000E+03  N  REF:0  !


PHASE CE2SB  %  2  0.6667  0.3333  !
CONSTITUENT CE2SB  : CE:SB :  !
PARAMETER G(CE2SB,CE:SB;0)  2.98140E+02 
 -84976.41+19.81017*T+0.6667*GHSERCE#+0.3333*GHSERSB#; 
  6.00000E+03  N REF:0 !



PHASE CE4SB3  %  2  0.5714 0.4286 !
CONSTITUENT CE4SB3  : CE:SB :  !

PARAMETER G(CE4SB3,CE:SB;0)  2.98140E+02 
 -106404.431+25.51007*T+0.5714*GHSERCE#+0.4286*GHSERSB#;  
  2.00000E+03  N REF:0 !



PHASE CESB  %  2  0.5  0.5  !
CONSTITUENT CESB  : CE,CO:SB :  !

PARAMETER G(CESB,CE:SB;0)  2.98140E+02 
 -118239.95+28.04425*T+0.5*GHSERCE#+0.5*GHSERSB#;
  2.00000E+03  N REF:0 !
PARAMETER G(CESB,CO:SB;0)  2.98140E+02 
 -10000-5.925*T+0.7381476*T*LN(T)+3.390339E-3*T**2
-1.61031525E-6*T**3+2.25E-21*T**7
-22500*T**(-1)+0.5*GHSERCO#+0.5*GHSERSBLOW#;
  2.00000E+03  N REF:0 !
PARAMETER G(CESB,CE,CO:SB;0) 2.98140E+02
 -8000+5.6*T;
  2.00000E+03  N REF:0 !

  


PHASE CESB2_L  %  2  0.3333 0.6667  !
CONSTITUENT CESB2_L  : CE :SB :  !

PARAMETER G(CESB2_L,CE:SB;0)  2.98140E+02 
 -91956.96+24.28*T+0.3333*GHSERCE#+0.6667*GHSERSB#; 
  4.00000E+03  N REF:0 !
 

PHASE CESB2_H  %  2  0.3333 0.6667  !
CONSTITUENT CESB2_H  : CE :SB :  !

PARAMETER G(CESB2_H,CE:SB;0)  2.98140E+02 
 -91877.2+24.212*T+0.3333*GHSERCE#+0.6667*GHSERSB#; 
  4.00000E+03  N REF:0 !
 
 
PHASE COSB %  3 0.3333  0.3333 0.3333 !
CONSTITUENT COSB  :SB : CO,VA :  VA,CO: !

PARAMETER G(COSB,SB:CO:VA;0)  2.98150E+02  
 -15440-3.95*T+0.4920984*T*LN(T)
+0.002260226*T**2-1.0735435E-06*T**3-15000*T**(-1)
+1.5E-21*T**7+0.3333*GHSERCO#+0.3333*GHSERSBLOW#; 
  6.00000E+03   N REF:0 !
PARAMETER G(COSB,SB:CO:CO;0)  2.98140E+02  
 -12044.4+3.2*T+0.6667*GHSERCO#+0.3333*GHSERSB#;  
  6.00000E+03    N REF:0 !
PARAMETER G(COSB,SB:VA:VA;0)  2.98140E+02  +5522.55+1.3*T
+0.3333*GHSERSB#;  
  6.00000E+03   N REF:0 !
PARAMETER G(COSB,SB:VA:CO;0)  2.98140E+02  -7103.3+50*T
+0.3333*GHSERCO#+0.3333*GHSERSB#;  
  6.00000E+03   N REF:0 !
PARAMETER G(COSB,SB:CO,VA:VA;0)  2.98140E+02  +500-2*T;  
  6.00000E+03   N REF:0 !
PARAMETER G(COSB,SB:CO,VA:CO;0)  2.98140E+02  +500-2*T;  
  6.00000E+03   N REF:0 !
PARAMETER G(COSB,SB:CO:VA,CO;0)  2.98140E+02  -7522.5+4*T;  
  6.00000E+03   N REF:0 !
PARAMETER G(COSB,SB:VA:VA,CO;0)  2.98140E+02  -7522.5+4*T;  
  6.00000E+03   N REF:0 !


PHASE COSB2 %  2 0.3333  0.6667 !
CONSTITUENT COSB2  :CO : SB : !

PARAMETER G(COSB2,CO:SB;0)  2.98150E+02  -25535+5.39*T
+2.07785787*T*LN(T)-0.013091*T**2
+1.56960316E-06*T**3-5000*T**(-1)+2.1E-21*T**7+0.3333*GHSERCO#
+0.6667*GHSERSBLOW#;   6.00000E+03   N  REF:0 !

PHASE COSB3 %  2 0.25  0.75 !
CONSTITUENT COSB3  :CO : SB : !

PARAMETER G(COSB3,CO:SB;0)  2.98150E+02  -21890+39.455*T
-3.6*T*LN(T)-0.01*T**2
+2.9E-06*T**3+5000*T**(-1)-5E-22*T**7
+0.25*GHSERCO#+0.75*GHSERSBLOW#;   
  6.00000E+03   N REF:0 !
   

PHASE RHOMBO_A7  %  1  1.0  !
CONSTITUENT RHOMBO_A7  :SB :  !

PARAMETER G(RHOMBO_A7,SB;0)  2.98140E+02  +GHSERSB#;  2.00000E+03  N 
REF:0 !

PHASE CECOSB2  %  3 0.22222 0.33334 0.44444 !
CONSTITUENT CECOSB2  :CE:CO,VA:SB :  !
PARAMETER G(CECOSB2,CE:CO:SB;0)  2.98140E+02  -63471+5.3*T
+0.4320984*T*LN(T)+0.003160226*T**2-1.7866535E-06*T**3-15000*T**(-1)
+9.3E-20*T**7+0.22222*GHSERCE#
+0.33334*GHSERCO#+0.44444*GHSERSBLOW#;   6.00000E+03   N  REF:0 !
PARAMETER G(CECOSB2,CE:VA:SB;0)  2.98140E+02  19100+1280*T
+0.22222*GHSERCE#+0.44444*GHSERSBLOW#;   6.00000E+03   N  REF:0 !
PARAMETER G(CECOSB2,CE:CO,VA:SB;0)  2.98140E+02  
 -235000-66*T
-8.866596*T*LN(T)-0.658626*T**2+1.3985635E-05*T**3
-15000*T**(-1); 3000 N REF:0 ! 

   

PHASE CECOSB3  %  3 0.2 0.2 0.6 !
CONSTITUENT CECOSB3  :CE:CO:SB :  !
PARAMETER G(CECOSB3,CE:CO:SB;0)  2.98140E+02  -63756+8.3*T
+0.6689984*T*LN(T)+0.000560226*T**2-1.0316435E-06*T**3-89500*T**(-1)
+1.86E-21*T**7+0.2*GHSERCE#
+0.2*GHSERCO#+0.6*GHSERSBLOW#;   6.00000E+03   N  REF:0 !
  


 LIST_OF_REFERENCES
 NUMBER  SOURCE
 ! 

