
$ Database file written 17- 2- 4
$
 ELEMENT /-   ELECTRON_GAS              0.0000E+00  0.0000E+00  0.0000E+00!
 ELEMENT VA   VACUUM                    0.0000E+00  0.0000E+00  0.0000E+00!
 ELEMENT AL   FCC_A1                    2.6982E+01  4.5773E+03  2.8322E+01!
 ELEMENT FE   BCC_A2                    5.5847E+01  4.4890E+03  2.7280E+01!
 ELEMENT NB   BCC_A2                    9.2906E+01  5.2200E+03  3.6270E+01!


 FUNCTION GHSERAL    2.98140E+02  -7976.15+137.093038*T-24.3671976*T*LN(T)
     -.001884662*T**2-8.77664E-07*T**3+74092*T**(-1);  7.00000E+02  Y
      -11276.24+223.048446*T-38.5844296*T*LN(T)+.018531982*T**2
     -5.764227E-06*T**3+74092*T**(-1);  9.33470E+02  Y
      -11278.378+188.684153*T-31.748192*T*LN(T)-1.230524E+28*T**(-9);  
     2.90000E+03  N !
 FUNCTION GHSERFE    2.98140E+02  +1225.7+124.134*T-23.5143*T*LN(T)
     -.00439752*T**2-5.8927E-08*T**3+77359*T**(-1);  1.81100E+03  Y
      -25383.581+299.31255*T-46*T*LN(T)+2.29603E+31*T**(-9);  6.00000E+03  N 
     !
 FUNCTION GHSERNB    2.98140E+02  -8519.353+142.045475*T-26.4711*T*LN(T)
     +2.03475E-04*T**2-3.5012E-07*T**3+93399*T**(-1);  2.75000E+03  Y
      -37669.3+271.720843*T-41.77*T*LN(T)+1.528238E+32*T**(-9);  6.00000E+03 
      N !
 FUNCTION UBALFE1    2.98150E+02  -4023-1.14*T;   6.00000E+03   N !
 FUNCTION UBALFE2    2.98150E+02  -1973-2*T;   6.00000E+03   N !
 FUNCTION ADO3ALFE   2.98150E+02  3900;   6.00000E+03   N !
 FUNCTION ADO3FEAL   2.98150E+02  -70+.5*T;   6.00000E+03   N !
 FUNCTION GDO3ALFE   2.98150E+02  +2*UBALFE1#+UBALFE2#+ADO3ALFE#;   
     6.00000E+03   N !
 FUNCTION GB32ALFE   2.98150E+02  +2*UBALFE1#+2*UBALFE2#;   6.00000E+03   N !
 FUNCTION GB2ALFE    2.98150E+02  +4*UBALFE1#;   6.00000E+03   N !
 FUNCTION GDO3FEAL   2.98150E+02  +2*UBALFE1#+UBALFE2#+ADO3FEAL#;   
     6.00000E+03   N !
 FUNCTION L1ALFE     2.98150E+02  -634+.68*T;   6.00000E+03   N !
 FUNCTION L2ALFE     2.98150E+02  -190;   6.00000E+03   N !
 FUNCTION UTCALFE    2.98150E+02  -125;   6.00000E+03   N !
 FUNCTION UBMALFE    2.98150E+02  -1.36;   6.00000E+03   N !
 FUNCTION BM0ALFE    2.98150E+02  -.3;   6.00000E+03   N !
 FUNCTION BM1ALFE    2.98150E+02  -.8;   6.00000E+03   N !
 FUNCTION BM2ALFE    2.98150E+02  .2;   6.00000E+03   N !
 FUNCTION GALBCC     2.98140E+02  +2106.85+132.280038*T-24.3671976*T*LN(T)
     -.001884662*T**2-8.77664E-07*T**3+74092*T**(-1);  7.00000E+02  Y
      -1193.24+218.235446*T-38.5844296*T*LN(T)+.018531982*T**2
     -5.764227E-06*T**3+74092*T**(-1);  9.33470E+02  Y
      -1195.378+183.871153*T-31.748192*T*LN(T)-1.230524E+28*T**(-9);  
     6.00000E+03  N !
 FUNCTION UN_ASS 298.15 0; 300 N !

 TYPE_DEFINITION % SEQ *!
 DEFINE_SYSTEM_DEFAULT SPECIE 2 !
 DEFAULT_COMMAND DEF_SYS_ELEMENT VA !


 PHASE LIQUID:L %  1  1.0  !
    CONSTITUENT LIQUID:L :AL,FE,NB :  !

   PARAMETER G(LIQUID,AL;0)  2.98140E+02  +3028.879+125.251171*T
  -24.3671976*T*LN(T)-.001884662*T**2-8.77664E-07*T**3+74092*T**(-1)
  +7.9337E-20*T**7;  7.00000E+02  Y
   -271.21+211.206579*T-38.5844296*T*LN(T)+.018531982*T**2-5.764227E-06*T**3
  +74092*T**(-1)+7.9337E-20*T**7;  9.33470E+02  Y
   -795.996+177.430178*T-31.748192*T*LN(T);  2.90000E+03  N REF:1 !
   PARAMETER G(LIQUID,FE;0)  2.98140E+02  +13265.87+117.57557*T
  -23.5143*T*LN(T)-.00439752*T**2-5.8927E-08*T**3+77359*T**(-1)
  -3.67516E-21*T**7;  1.81100E+03  Y
   -10838.83+291.302*T-46*T*LN(T);  6.00000E+03  N REF:1 !
   PARAMETER G(LIQUID,NB;0)  2.98140E+02  +21262.202+131.229057*T
  -26.4711*T*LN(T)+2.03475E-04*T**2-3.5012E-07*T**3+93399*T**(-1)
  -3.06098E-23*T**7;  2.75000E+03  Y
   -7499.398+260.756148*T-41.77*T*LN(T);  6.00000E+03  N REF:1 !
   PARAMETER G(LIQUID,AL,FE;0)  2.98150E+02  -88090+19.8*T;   6.00000E+03   
  N REF:0 !
   PARAMETER G(LIQUID,AL,FE;1)  2.98150E+02  -3800+3*T;   6.00000E+03   N 
  REF:0 !
   PARAMETER G(LIQUID,AL,FE;2)  2.98150E+02  -2000;   6.00000E+03   N REF:0 !
   PARAMETER G(LIQUID,AL,FE,NB;0)  2.98150E+02  -15956.2;   6.00000E+03   
  N REF:0 !
   PARAMETER G(LIQUID,AL,FE,NB;1)  2.98150E+02  -10286.9-13.9219*T;
   6.00000E+03   N REF:0 !
   PARAMETER G(LIQUID,AL,FE,NB;2)  2.98150E+02  +5976.0;   6.00000E+03   
  N REF:0 !
   PARAMETER G(LIQUID,AL,NB;0)  2.98150E+02  -106943+28.263*T;   6.00000E+03 
    N REF:0 !
   PARAMETER G(LIQUID,AL,NB;1)  2.98150E+02  8552;   6.00000E+03   N REF:0 !
   PARAMETER G(LIQUID,FE,NB;0)  2.98150E+02  -74257+99.67*T-10*T*LN(T);   
  6.00000E+03   N REF:0 !
   PARAMETER G(LIQUID,FE,NB;1)  2.98150E+02  +17624-10.805*T;   6.00000E+03  
   N REF:0 !


 PHASE AL13FE4  %  3 .235   .6275   .1375 !
    CONSTITUENT AL13FE4  :FE : AL : AL,VA :  !

   PARAMETER G(AL13FE4,FE:AL:AL;0)  2.98150E+02  -30680+7.4*T+.235*GHSERFE#
  +.765*GHSERAL#;   6.00000E+03   N REF:0 !
   PARAMETER G(AL13FE4,FE:AL:VA;0)  2.98150E+02  -28100+7.4*T+.235*GHSERFE#
  +.6275*GHSERAL#;   6.00000E+03   N REF:0 !


 PHASE AL2FE  %  2 1   2 !
    CONSTITUENT AL2FE  :FE : AL :  !

   PARAMETER G(AL2FE,FE:AL;0)  2.98150E+02  -104000+23*T+GHSERFE#
  +2*GHSERAL#;   6.00000E+03   N REF:0 !


 PHASE AL3NB  %  2 3   1 !
    CONSTITUENT AL3NB  :AL,NB : AL,NB :  !

   PARAMETER G(AL3NB,AL:AL;0)  2.98150E+02  +80000+4*GHSERAL#;   6.00000E+03 
    N REF:0 !
   PARAMETER G(AL3NB,NB:AL;0)  2.98150E+02  +20000+3*GHSERNB#+GHSERAL#;   
  6.00000E+03   N REF:0 !
   PARAMETER G(AL3NB,AL:NB;0)  2.98150E+02  -170988.7+36.086*T+3*GHSERAL#
  +GHSERNB#;   6.00000E+03   N REF:0 !
   PARAMETER G(AL3NB,NB:NB;0)  2.98150E+02  +80000+4*GHSERNB#;   6.00000E+03 
    N REF:0 !
   PARAMETER G(AL3NB,AL,NB:AL;0)  2.98150E+02  -110692+85*T;   6.00000E+03   
  N REF:0 !
   PARAMETER G(AL3NB,AL,NB:NB;0)  2.98150E+02  -110692+85*T;   6.00000E+03   
  N REF:0 !


 PHASE AL5FE2  %  2 5   2 !
    CONSTITUENT AL5FE2  :AL : FE :  !

   PARAMETER G(AL5FE2,AL:FE;0)  2.98150E+02  -235600+54*T+5*GHSERAL#
  +2*GHSERFE#;   6.00000E+03   N REF:0 !


 PHASE AL8FE5  %  2 8   5 !
    CONSTITUENT AL8FE5  :AL,FE,NB : AL,FE,NB :  !

   PARAMETER G(AL8FE5,AL:AL;0)  2.98150E+02  +13*GALBCC#;   6.00000E+03   N 
  REF:0 !
   PARAMETER G(AL8FE5,FE:AL;0)  2.98150E+02  +8*GHSERFE#+5*GALBCC#+20000
  +36*T;   6.00000E+03   N REF:0 !
   PARAMETER G(AL8FE5,NB:AL;0)  2.98150E+02  +5*GALBCC#+8*GHSERNB#+870911.5; 
    6.00000E+03   N REF:0 !
   PARAMETER G(AL8FE5,AL:FE;0)  2.98150E+02  +8*GALBCC#+5*GHSERFE#-394000
  +36*T;   6.00000E+03   N REF:0 !
   PARAMETER G(AL8FE5,FE:FE;0)  2.98150E+02  +13000+13*GHSERFE#;   
  6.00000E+03   N REF:0 !
   PARAMETER G(AL8FE5,NB:FE;0)  2.98150E+02  +5*GHSERFE#+8*GHSERNB#+65000;   
  6.00000E+03   N REF:0 !
   PARAMETER G(AL8FE5,AL:NB;0)  2.98150E+02  +8*GALBCC#+5*GHSERNB#+870911.5; 
    6.00000E+03   N REF:0 !
   PARAMETER G(AL8FE5,FE:NB;0)  2.98150E+02  +8*GHSERFE#+5*GHSERNB#+65000;   
  6.00000E+03   N REF:0 !
   PARAMETER G(AL8FE5,NB:NB;0)  2.98150E+02  +13*GHSERNB#+13000;   
  6.00000E+03   N REF:0 !
   PARAMETER G(AL8FE5,AL,FE:AL;0)  2.98150E+02  0;   6.00000E+03  
   N REF:0 !
   PARAMETER G(AL8FE5,AL,NB:AL;0)  2.98150E+02  -435271.3;   6.00000E+03  
   N REF:0 !
   PARAMETER G(AL8FE5,AL:AL,FE;0)  2.98150E+02  -100000;   6.00000E+03   N 
  REF:0 !
   PARAMETER G(AL8FE5,FE:AL,FE;0)  2.98150E+02  0;   6.00000E+03  
   N REF:0 !
   PARAMETER G(AL8FE5,NB:AL,FE;0)  2.98150E+02  0;   6.00000E+03  
   N REF:0 !
   PARAMETER G(AL8FE5,AL,FE:FE;0)  2.98150E+02  -174000;   6.00000E+03   N 
  REF:0 !
   PARAMETER G(AL8FE5,AL,NB:FE;0)  2.98150E+02  -435271.3;   6.00000E+03  
   N REF:0 !
   PARAMETER G(AL8FE5,AL,FE:NB;0)  2.98150E+02  0;   6.00000E+03  
   N REF:0 !
   PARAMETER G(AL8FE5,AL,NB:NB;0)  2.98150E+02  -435271.3;   6.00000E+03  
   N REF:0 !


 PHASE ALNB2  %  3 .533333   .333333   .133334 !
    CONSTITUENT ALNB2  :AL,NB : AL,FE,NB : NB :  !

   PARAMETER G(ALNB2,AL:AL:NB;0)  2.98150E+02  +.133334*GHSERNB#
  +.866666*GHSERAL#;   6.00000E+03   N REF:0 !
   PARAMETER G(ALNB2,NB:AL:NB;0)  2.98150E+02  -27837.49+2.679*T
  +.666667*GHSERNB#+.333333*GHSERAL#;   6.00000E+03   N REF:0 !
   PARAMETER G(ALNB2,AL:FE:NB;0)  2.98150E+02  +.533333*GHSERAL#
  +.333333*GHSERFE#+.133334*GHSERNB#;   6.00000E+03   N REF:0 !
   PARAMETER G(ALNB2,NB:FE:NB;0)  2.98150E+02  +5000+.666667*GHSERNB#
  +.333333*GHSERFE#;   6.00000E+03   N REF:0 !
   PARAMETER G(ALNB2,AL:NB:NB;0)  2.98150E+02  +27837.5-2.679*T+3000
  +.466667*GHSERNB#+.533333*GHSERAL#;   6.00000E+03   N REF:0 !
   PARAMETER G(ALNB2,NB:NB:NB;0)  2.98150E+02  +3000+GHSERNB#;   6.00000E+03 
    N REF:0 !
   PARAMETER G(ALNB2,AL,NB:AL:NB;0)  2.98150E+02  -10564.2;   6.00000E+03   
  N REF:0 !
   PARAMETER G(ALNB2,AL:AL,FE:NB;0)  2.98150E+02  -45763.3+26.3776*T;   
  6.00000E+03   N REF:0 !
   PARAMETER G(ALNB2,AL:AL,FE:NB;1)  2.98150E+02  -50017.0;   
  6.00000E+03   N REF:0 !
   PARAMETER G(ALNB2,NB:AL,FE:NB;0)  2.98150E+02  -45763.3+26.3776*T;   
  6.00000E+03   N REF:0 !
   PARAMETER G(ALNB2,NB:AL,FE:NB;1)  2.98150E+02  -50017.0;   
  6.00000E+03   N REF:0 !
   PARAMETER G(ALNB2,AL,NB:FE:NB;0)  2.98150E+02  -10564.2;   6.00000E+03   
  N REF:0 !
   PARAMETER G(ALNB2,AL,NB:NB:NB;0)  2.98150E+02  -10564.2;   6.00000E+03   
  N REF:0 !


 PHASE ALNB3  %  2 .75   .25 !
    CONSTITUENT ALNB3  :AL,NB : AL,NB :  !

   PARAMETER G(ALNB3,AL:AL;0)  2.98150E+02  +5000+GHSERAL#;   6.00000E+03   
  N REF:0 !
   PARAMETER G(ALNB3,NB:AL;0)  2.98150E+02  -19136.3+.75*GHSERNB#
  +.25*GHSERAL#;   6.00000E+03   N REF:0 !
   PARAMETER G(ALNB3,AL:NB;0)  2.98150E+02  +5000+.75*GHSERAL#+.25*GHSERNB#; 
    6.00000E+03   N REF:0 !
   PARAMETER G(ALNB3,NB:NB;0)  2.98150E+02  +4894.9+GHSERNB#;   6.00000E+03  
   N REF:0 !
   PARAMETER G(ALNB3,NB:AL,NB;0)  2.98150E+02  -13780.3+5.736*T;   
  6.00000E+03   N REF:0 !


$ THIS PHASE HAS A DISORDERED CONTRIBUTION FROM BCC_A2                  
 TYPE_DEFINITION & GES A_P_D B2_2SL MAGNETIC  -1.0    4.00000E-01 !
 PHASE B2_2SL  %&  3 .5   .5   3 !
    CONSTITUENT B2_2SL  :AL,FE,NB : AL,FE,NB : VA :  !

       PARA G(B2_2SL,AL:AL:VA;0) 298.15 0; 6000 N!
   PARAMETER G(B2_2SL,FE:AL:VA;0)  2.98150E+02  +2*GB2ALFE#;   
  6.00000E+03   N REF:0 !
   PARAMETER TC(B2_2SL,FE:AL:VA;0)  2.98150E+02  +4*UTCALFE#;   
  6.00000E+03   N REF:0 !
   PARAMETER BMAGN(B2_2SL,FE:AL:VA;0)  2.98150E+02  +4*UBMALFE#
  -2*BM0ALFE#;   6.00000E+03   N REF:0 !
       PARA G(B2_2SL,NB:AL:VA;0) 298.15 0; 6000 N!
   PARAMETER G(B2_2SL,AL:FE:VA;0)  2.98150E+02  +2*GB2ALFE#;   
  6.00000E+03   N REF:0 !
   PARAMETER TC(B2_2SL,AL:FE:VA;0)  2.98150E+02  +4*UTCALFE#;   
  6.00000E+03   N REF:0 !
   PARAMETER BMAGN(B2_2SL,AL:FE:VA;0)  2.98150E+02  +4*UBMALFE#
  -2*BM0ALFE#;   6.00000E+03   N REF:0 !

   PARAMETER G(B2_2SL,AL,FE:AL:VA;0)  2.98150E+02  +2*GDO3ALFE#;   
  6.00000E+03   N REF:0 !
   PARAMETER G(B2_2SL,AL:AL,FE:VA;0)  2.98150E+02  +2*GDO3ALFE#;   
  6.00000E+03   N REF:0 !
   PARAMETER G(B2_2SL,FE:AL,FE:VA;0)  2.98150E+02  +2*GDO3FEAL#;   
  6.00000E+03   N REF:0 !
   PARAMETER G(B2_2SL,AL,FE:FE:VA;0)  2.98150E+02  +2*GDO3FEAL#;   
  6.00000E+03   N REF:0 !
   PARAMETER G(B2_2SL,AL,FE:AL,FE:VA;0)  2.98150E+02
  -4*ADO3ALFE-4*ADO3FEAL;   6.00000E+03   N REF:0 !
   PARAMETER G(B2_2SL,AL,FE:*:VA;1)  2.98150E+02  +2*L1ALFE#;   
  6.00000E+03   N REF:0 !
   PARAMETER G(B2_2SL,*:AL,FE:VA;1)  2.98150E+02  +2*L1ALFE#;   
  6.00000E+03   N REF:0 !
   PARAMETER G(B2_2SL,AL,FE:*:VA;2)  2.98150E+02  +2*L2ALFE#;   
  6.00000E+03   N REF:0 !
   PARAMETER G(B2_2SL,*:AL,FE:VA;2)  2.98150E+02  +2*L2ALFE#;   
  6.00000E+03   N REF:0 !
   PARAMETER BMAGN(B2_2SL,AL,FE:*:VA;1)  2.98150E+02  +2*BM1ALFE#;   
  6.00000E+03   N REF:0 !
   PARAMETER BMAGN(B2_2SL,*:AL,FE:VA;1)  2.98150E+02  +2*BM1ALFE#;   
  6.00000E+03   N REF:0 !
   PARAMETER BMAGN(B2_2SL,AL,FE:*:VA;2)  2.98150E+02  +2*BM2ALFE#;   
  6.00000E+03   N REF:0 !
   PARAMETER BMAGN(B2_2SL,*:AL,FE:VA;2)  2.98150E+02  +2*BM2ALFE#;   
  6.00000E+03   N REF:0 !



 TYPE_DEFINITION ' GES AMEND_PHASE_DESCRIPTION B2_2SL DIS_PART BCC_A2,,,!
 TYPE_DEFINITION ( GES A_P_D BCC_A2 MAGNETIC  -1.0    4.00000E-01 !
 PHASE BCC_A2  %'(  2 1   3 !
    CONSTITUENT BCC_A2  :AL,FE,NB : VA :  !

   PARAMETER G(BCC_A2,AL:VA;0)  2.98140E+02  +2106.85+132.280038*T
  -24.3671976*T*LN(T)-.001884662*T**2-8.77664E-07*T**3+74092*T**(-1);  
  7.00000E+02  Y
   -1193.24+218.235446*T-38.5844296*T*LN(T)+.018531982*T**2
  -5.764227E-06*T**3+74092*T**(-1);  9.33470E+02  Y
   -1195.378+183.871153*T-31.748192*T*LN(T)-1.230524E+28*T**(-9);  
  2.90000E+03  N REF:1 !
   PARAMETER G(BCC_A2,FE:VA;0)  2.98150E+02  +GHSERFE#;   6.00000E+03   N 
  REF:1 !
   PARAMETER TC(BCC_A2,FE:VA;0)  2.98150E+02  1043;   6.00000E+03   N REF:1 !
   PARAMETER BMAGN(BCC_A2,FE:VA;0)  2.98150E+02  2.22;   6.00000E+03   N 
  REF:1 !
   PARAMETER G(BCC_A2,NB:VA;0)  2.98150E+02  +GHSERNB#;   6.00000E+03   N 
  REF:1 !
   PARAMETER G(BCC_A2,AL,FE:VA;0)  2.98150E+02  -122960+32*T;   6.00000E+03  
   N REF:0 !
   PARAMETER G(BCC_A2,AL,FE:VA;1)  2.98150E+02  2945.2;   6.00000E+03   N 
  REF:0 !
   PARAMETER TC(BCC_A2,AL,FE:VA;0)  2.98150E+02  -438;   6.00000E+03   N 
  REF:0 !
   PARAMETER TC(BCC_A2,AL,FE:VA;1)  2.98150E+02  -1720;   6.00000E+03   N 
  REF:0 !
   PARAMETER G(BCC_A2,AL,FE,NB:VA;0)  2.98150E+02  0;   
  6.00000E+03   N REF:0 !
   PARAMETER G(BCC_A2,AL,FE,NB:VA;1)  2.98150E+02  +80000;   
  6.00000E+03   N REF:0 !
   PARAMETER G(BCC_A2,AL,FE,NB:VA;2)  2.98150E+02  0;   
  6.00000E+03   N REF:0 !
   PARAMETER G(BCC_A2,AL,NB:VA;0)  2.98150E+02  -95384.4+20.186*T;   
  6.00000E+03   N REF:0 !
   PARAMETER G(BCC_A2,AL,NB:VA;1)  2.98150E+02  -5995;   6.00000E+03   N 
  REF:0 !
   PARAMETER G(BCC_A2,FE,NB:VA;0)  2.98150E+02  -10893+10.288*T;   
  6.00000E+03   N REF:0 !
   PARAMETER G(BCC_A2,FE,NB:VA;1)  2.98150E+02  +4674-5.776*T;   6.00000E+03 
    N REF:0 !


 TYPE_DEFINITION * GES A_P_D FCC_A1 MAGNETIC  -3.0    2.80000E-01 !
 PHASE FCC_A1  %*  2 1   1 !
    CONSTITUENT FCC_A1  :AL,FE,NB : VA :  !

   PARAMETER G(FCC_A1,AL:VA;0)  2.98140E+02  +GHSERAL#;  2.90000E+03  N 
  REF:1 !
   PARAMETER G(FCC_A1,FE:VA;0)  2.98140E+02  -236.7+132.416*T
  -24.6643*T*LN(T)-.00375752*T**2-5.8927E-08*T**3+77359*T**(-1);  
  1.81100E+03  Y
   -27097.3963+300.252559*T-46*T*LN(T)+2.78854E+31*T**(-9);  6.00000E+03  N 
  REF:1 !
   PARAMETER TC(FCC_A1,FE:VA;0)  2.98150E+02  -201;   6.00000E+03   N REF:1 !
   PARAMETER BMAGN(FCC_A1,FE:VA;0)  2.98150E+02  -2.1;   6.00000E+03   N 
  REF:1 !
   PARAMETER G(FCC_A1,NB:VA;0)  2.98140E+02  +4980.647+143.745475*T
  -26.4711*T*LN(T)+2.03475E-04*T**2-3.5012E-07*T**3+93399*T**(-1);  
  2.75000E+03  Y
   -24169.3+273.420843*T-41.77*T*LN(T)+1.528238E+32*T**(-9);  6.00000E+03  N 
  REF:1 !
   PARAMETER G(FCC_A1,AL,FE:VA;0)  2.98150E+02  -104700+30.65*T;   
  6.00000E+03   N REF:0 !
   PARAMETER G(FCC_A1,AL,FE:VA;1)  2.98150E+02  +30000-7*T;   6.00000E+03   
  N REF:0 !
   PARAMETER G(FCC_A1,AL,FE:VA;2)  2.98150E+02  +32200-17*T;   6.00000E+03   
  N REF:0 !
   PARAMETER G(FCC_A1,AL,FE,NB:VA;0)  2.98150E+02  0;   6.00000E+03 
    N REF:0 !
   PARAMETER G(FCC_A1,AL,FE,NB:VA;1)  2.98150E+02  0;   
  6.00000E+03   N REF:0 !
   PARAMETER G(FCC_A1,AL,FE,NB:VA;2)  2.98150E+02  0;   
  6.00000E+03   N REF:0 !
   PARAMETER G(FCC_A1,AL,NB:VA;0)  2.98150E+02  -61684;   6.00000E+03   N 
  REF:0 !
   PARAMETER G(FCC_A1,AL,NB:VA;1)  2.98150E+02  -40679;   6.00000E+03   N 
  REF:0 !
   PARAMETER G(FCC_A1,FE,NB:VA;0)  2.98150E+02  -6176-2.04*T;   6.00000E+03  
   N REF:0 !


 TYPE_DEFINITION + GES A_P_D HCP_A3 MAGNETIC  -3.0    2.80000E-01 !
 PHASE HCP_A3  %+  2 1   .5 !
    CONSTITUENT HCP_A3  :AL,FE,NB : VA :  !

   PARAMETER G(HCP_A3,AL:VA;0)  2.98140E+02  -2495.15+135.293038*T
  -24.3671976*T*LN(T)-.001884662*T**2-8.77664E-07*T**3+74092*T**(-1);  
  7.00000E+02  Y
   -5795.24+221.248446*T-38.5844296*T*LN(T)+.018531982*T**2
  -5.764227E-06*T**3+74092*T**(-1);  9.33470E+02  Y
   -5797.378+186.884153*T-31.748192*T*LN(T)-1.230524E+28*T**(-9);  
  2.90000E+03  N REF:1 !
   PARAMETER G(HCP_A3,FE:VA;0)  2.98140E+02  -2480.08+136.725*T
  -24.6643*T*LN(T)-.00375752*T**2-5.8927E-08*T**3+77359*T**(-1);  
  1.81100E+03  Y
   -29340.776+304.561559*T-46*T*LN(T)+2.78854E+31*T**(-9);  6.00000E+03  N 
  REF:1 !
   PARAMETER G(HCP_A3,NB:VA;0)  2.98140E+02  +1480.647+144.445475*T
  -26.4711*T*LN(T)+2.03475E-04*T**2-3.5012E-07*T**3+93399*T**(-1);  
  2.75000E+03  Y
   -27669.3+274.120843*T-41.77*T*LN(T)+1.528238E+32*T**(-9);  6.00000E+03  N 
  REF:1 !
   PARAMETER G(HCP_A3,AL,NB:VA;0)  2.98150E+02  -134000+38*T;   6.00000E+03  
   N REF:0 !
   PARAMETER G(HCP_A3,AL,FE,NB:VA;0)  2.98150E+02  0;   
  6.00000E+03   N REF:0 !
   PARAMETER G(HCP_A3,AL,FE,NB:VA;1)  2.98150E+02  0;   
  6.00000E+03   N REF:0 !
   PARAMETER G(HCP_A3,AL,FE,NB:VA;2)  2.98150E+02  0;   
  6.00000E+03   N REF:0 !


 PHASE L_C14  %  2 2   1 !
    CONSTITUENT L_C14  :AL,FE,NB : FE,NB :  !

   PARAMETER G(L_C14,AL:FE;0)  2.98150E+02  +66374.4+2*GHSERAL#+GHSERFE#
  -104000+23*T;   6.00000E+03   N REF:0 !
   PARAMETER G(L_C14,FE:FE;0)  2.98150E+02  +44130+3*GHSERFE#;   6.00000E+03 
    N REF:0 !
   PARAMETER G(L_C14,NB:FE;0)  2.98150E+02  +180030+GHSERFE#+2*GHSERNB#;   
  6.00000E+03   N REF:0 !
   PARAMETER G(L_C14,AL:NB;0)  2.98150E+02  +6814.3+2*GHSERAL#+GHSERNB#
  -119295.714+23.259*T;   6.00000E+03   N REF:0 !
   PARAMETER G(L_C14,FE:NB;0)  2.98150E+02  -67223+13.971*T+2*GHSERFE#
  +GHSERNB#;   6.00000E+03   N REF:0 !
   PARAMETER G(L_C14,NB:NB;0)  2.98150E+02  +49620+3*GHSERNB#;   6.00000E+03 
    N REF:0 !
   PARAMETER G(L_C14,AL,FE:FE;0)  2.98150E+02  -114723.5+10.2272*T;
   6.00000E+03   
  N REF:0 !
   PARAMETER G(L_C14,AL,FE:FE;1)  2.98150E+02  -5231.9+0.2946*T;
   6.00000E+03   
  N REF:0 !
   PARAMETER G(L_C14,AL:FE,NB;0)  2.98150E+02  -33816;   6.00000E+03   N 
  REF:0 !
   PARAMETER G(L_C14,FE:FE,NB;0)  2.98150E+02  -33816;   6.00000E+03   N 
  REF:0 !
   PARAMETER G(L_C14,NB:FE,NB;0)  2.98150E+02  -33816;   6.00000E+03   N 
  REF:0 !
   PARAMETER G(L_C14,AL,FE:NB;0)  2.98150E+02  -114723.5+10.2272*T;
   6.00000E+03   
  N REF:0 !
   PARAMETER G(L_C14,AL,FE:NB;1)  2.98150E+02  -5231.9+0.2946*T;
   6.00000E+03   
  N REF:0 !

  PHASE MU_4SL  %  4 1   4   2   6 !
    CONSTITUENT MU_4SL  :AL,FE,NB : NB : AL,FE,NB : AL,FE,NB :  !

   PARAMETER G(MU_4SL,AL:NB:AL:AL;0)  2.98150E+02
  +9*GHSERAL#+4*GHSERNB#-528875.84+105.863*T+65000;
   6.00000E+03   N REF:0 !
   PARAMETER G(MU_4SL,FE:NB:AL:AL;0)  2.98150E+02
  +8*GHSERAL#+4*GHSERNB#+GHSERFE#;   6.00000E+03   N REF:0 !
   PARAMETER G(MU_4SL,NB:NB:AL:AL;0)  2.98150E+02
  +8*GHSERAL#+5*GHSERNB#-493092.6+90.641*T+65000;
   6.00000E+03   N REF:0 !
   PARAMETER G(MU_4SL,AL:NB:FE:AL;0)  2.98150E+02
  +7*GHSERAL#+4*GHSERNB#+2*GHSERFE#;   6.00000E+03   N REF:0 !
   PARAMETER G(MU_4SL,FE:NB:FE:AL;0)  2.98150E+02
  +6*GHSERAL#+4*GHSERNB#+3*GHSERFE#;   6.00000E+03   N REF:0 !
   PARAMETER G(MU_4SL,NB:NB:FE:AL;0)  2.98150E+02
  +6*GHSERAL#+5*GHSERNB#+2*GHSERFE#;   6.00000E+03   N REF:0 !
   PARAMETER G(MU_4SL,AL:NB:NB:AL;0)  2.98150E+02
  +7*GHSERAL#+6*GHSERNB#-457309.354+75.4197*T+65000;
   6.00000E+03   N REF:0 !
   PARAMETER G(MU_4SL,FE:NB:NB:AL;0)  2.98150E+02
  +6*GHSERAL#+6*GHSERNB#+GHSERFE#-471034.64+64.4046839*T;
   6.00000E+03   N REF:0 !
   PARAMETER G(MU_4SL,NB:NB:NB:AL;0)  2.98150E+02
  +6*GHSERAL#+7*GHSERNB#-421526.11+60.197*T+65000;
   6.00000E+03   N REF:0 !
   PARAMETER G(MU_4SL,AL:NB:AL:FE;0)  2.98150E+02
  +3*GHSERAL#+4*GHSERNB#+6*GHSERFE#;   6.00000E+03   N REF:0 !
   PARAMETER G(MU_4SL,FE:NB:AL:FE;0)  2.98150E+02
  +2*GHSERAL#+4*GHSERNB#+7*GHSERFE#;   6.00000E+03   N REF:0 !
   PARAMETER G(MU_4SL,NB:NB:AL:FE;0)  2.98150E+02
  +2*GHSERAL#+5*GHSERNB#+6*GHSERFE#;   6.00000E+03   N REF:0 !
   PARAMETER G(MU_4SL,AL:NB:FE:FE;0)  2.98150E+02
  +GHSERAL#+4*GHSERNB#+8*GHSERFE#;   6.00000E+03   N REF:0 !
   PARAMETER G(MU_4SL,FE:NB:FE:FE;0)  2.98150E+02
  +4*GHSERNB#+9*GHSERFE#-100230;    6.00000E+03   N REF:0 !
   PARAMETER G(MU_4SL,NB:NB:FE:FE;0)  2.98150E+02
  +5*GHSERNB#+8*GHSERFE#-27430;    6.00000E+03   N REF:0 !
   PARAMETER G(MU_4SL,AL:NB:NB:FE;0)  2.98150E+02
  +GHSERAL#+6*GHSERNB#+6*GHSERFE#;   6.00000E+03   N REF:0 !
   PARAMETER G(MU_4SL,FE:NB:NB:FE;0)  2.98150E+02
  +6*GHSERNB#+7*GHSERFE#-266116+56*T;   6.00000E+03   N REF:0 !
   PARAMETER G(MU_4SL,NB:NB:NB:FE;0)  2.98150E+02
  +7*GHSERNB#+6*GHSERFE#-131400;     6.00000E+03   N REF:0 !
   PARAMETER G(MU_4SL,AL:NB:AL:NB;0)  2.98150E+02
  +3*GHSERAL#+10*GHSERNB#-229635.6+65000;   6.00000E+03   N REF:0 !
   PARAMETER G(MU_4SL,FE:NB:AL:NB;0)  2.98150E+02
  +2*GHSERAL#+10*GHSERNB#+GHSERFE#;   6.00000E+03   N REF:0 !
   PARAMETER G(MU_4SL,NB:NB:AL:NB;0)  2.98150E+02
  +2*GHSERAL#+11*GHSERNB#-153090.4+65000;   6.00000E+03   N REF:0 !
   PARAMETER G(MU_4SL,AL:NB:FE:NB;0)  2.98150E+02
  +GHSERAL#+10*GHSERNB#+2*GHSERFE#;   6.00000E+03   N REF:0 !
   PARAMETER G(MU_4SL,FE:NB:FE:NB;0)  2.98150E+02
  +10*GHSERNB#+3*GHSERFE#+426530;   6.00000E+03   N REF:0 !
   PARAMETER G(MU_4SL,NB:NB:FE:NB;0)  2.98150E+02
  +11*GHSERNB#+2*GHSERFE#+499200;   6.00000E+03   N REF:0 !
   PARAMETER G(MU_4SL,AL:NB:NB:NB;0)  2.98150E+02
  +GHSERAL#+12*GHSERNB#-76545.2+65000;   6.00000E+03   N REF:0 !
   PARAMETER G(MU_4SL,FE:NB:NB:NB;0)  2.98150E+02
  +GHSERFE#+12*GHSERNB#+176020;   6.00000E+03   N REF:0 !
   PARAMETER G(MU_4SL,NB:NB:NB:NB;0)  2.98150E+02
  +13*GHSERNB#+227500;  6.00000E+03   N REF:0 !
   PARAMETER G(MU_4SL,FE:NB:NB:AL,FE;0)  2.98150E+02
  -375342.084+99.7270531*T;   6.00000E+03   N REF:0 !
   PARAMETER G(MU_4SL,FE:NB:NB:AL,FE;1)  2.98150E+02  +13478.2068;   
  6.00000E+03   N REF:0 !


 LIST_OF_REFERENCES
 NUMBER  SOURCE
  ! 

