
$ Database file written 2016- 9- 1
$ From database: USER                    
 ELEMENT /-   ELECTRON_GAS              0.0000E+00  0.0000E+00  0.0000E+00!
 ELEMENT VA   VACUUM                    0.0000E+00  0.0000E+00  0.0000E+00!
 ELEMENT CO   HCP_A3                    5.8933E+01  4.7655E+03  3.0040E+01!
 ELEMENT TI   HCP_A3                    4.7880E+01  4.8100E+03  3.0648E+01!
 ELEMENT V    BCC_A2                    5.0941E+01  4.5070E+03  3.0890E+01!
 
 SPECIES CO1                         CO!
 
 FUNCTION GHSERCC    2.98150E+02  -17368.441+170.73*T-24.3*T*LN(T)
     -4.723E-04*T**2+2562600*T**(-1)-2.643E+08*T**(-2)+1.2E+10*T**(-3);   
     6.00000E+03   N !
 FUNCTION GHSERCO    2.98140E+02  +310.241+133.36601*T-25.0861*T*LN(T)
     -.002654739*T**2-1.7348E-07*T**3+72527*T**(-1);  1.76800E+03  Y
      -17197.666+253.28374*T-40.5*T*LN(T)+9.3488E+30*T**(-9);  6.00000E+03  
     N !
 FUNCTION GCOLIQ     2.98140E+02  +15085.037-8.931932*T-2.198E-21*T**7
     +GHSERCO#;  1.76800E+03  Y
      -846.61+243.599944*T-40.5*T*LN(T);  6.00000E+03  N !
 FUNCTION GCRLIQ     2.98150E+02  +15483.015+146.059775*T-26.908*T*LN(T)
     +.00189435*T**2-1.47721E-06*T**3+139250*T**(-1)+2.37615E-21*T**7;  
     2.18000E+03  Y
      -16459.984+335.616316*T-50*T*LN(T);  6.00000E+03  N !
 FUNCTION GHSERWW    2.98150E+02  -7646.311+130.4*T-24.1*T*LN(T)
     -.001936*T**2+2.07E-07*T**3+44500*T**(-1)-5.33E-11*T**4;  3.69500E+03  Y
      -82868.801+389.362335*T-54*T*LN(T)+1.528621E+33*T**(-9);  6.00000E+03  
     N !
 FUNCTION GWLIQ      2.98150E+02  +52160.584-14.10999*T-2.713468E-24*T**7
     +GHSERWW#;  3.69500E+03  Y
      +52432.75-14.187335*T-1.528621E+33*T**(-9)+GHSERWW#;  6.00000E+03  N !
 FUNCTION GTALIQ     2.98150E+02  +21875.086+111.561128*T-23.7592624*T*LN(T)
     -.002623033*T**2+1.70109E-07*T**3-3293*T**(-1);  1.00000E+03  Y
      +43884.339-61.981795*T+.0279523*T*LN(T)-.012330066*T**2
     +6.14599E-07*T**3-3523338*T**(-1);  3.29000E+03  Y
      -6314.543+258.110873*T-41.84*T*LN(T);  6.00000E+03  N !
 FUNCTION GTILIQ     2.98150E+02  +4134.494+126.63427*T-23.9933*T*LN(T)
     -.004777975*T**2+1.06716E-07*T**3+72636*T**(-1);  9.00000E+02  Y
      +4382.601+126.00713*T-23.9887*T*LN(T)-.0042033*T**2-9.0876E-08*T**3
     +42680*T**(-1);  1.15500E+03  Y
      +13103.253+59.9956*T-14.9466*T*LN(T)-.0081465*T**2+2.02715E-07*T**3
     -1477660*T**(-1);  1.30000E+03  Y
      +369519.198-2554.0225*T+342.059267*T*LN(T)-.163409355*T**2
     +1.2457117E-05*T**3-67034516*T**(-1);  1.94100E+03  Y
      -19887.066+298.7367*T-46.29*T*LN(T);  4.00000E+03  N !
 FUNCTION GHSERNN    2.98140E+02  -3750.675-9.45425*T-12.7819*T*LN(T)
     -.00176686*T**2+2.681E-09*T**3-32374*T**(-1);  9.50000E+02  Y
      -7358.85+17.2003*T-16.3699*T*LN(T)-6.5107E-04*T**2+3.0097E-08*T**3
     +563070*T**(-1);  3.35000E+03  Y
      -16392.8+50.26*T-20.4695*T*LN(T)+2.39754E-04*T**2-8.333E-09*T**3
     +4596375*T**(-1);  6.00000E+03  N !
 FUNCTION GHSERNB    2.98150E+02  -8519.353+142.045475*T-26.4711*T*LN(T)
     +2.03475E-04*T**2-3.5012E-07*T**3+93399*T**(-1);  2.75000E+03  Y
      -37669.3+271.720843*T-41.77*T*LN(T)+1.528238E+32*T**(-9);  6.00000E+03 
      N !
 FUNCTION GNBLIQ     2.98140E+02  +29781.555-10.816418*T-3.06098E-23*T**7
     +GHSERNB#;  2.75000E+03  Y
      +30169.902-10.964695*T-1.528238E+32*T**(-9)+GHSERNB#;  6.00000E+03  N !
 FUNCTION GNILIQ     2.98150E+02  +11235.527+108.457*T-22.096*T*LN(T)
     -.0048407*T**2-3.82318E-21*T**7;  1.72800E+03  Y
      -9549.775+268.598*T-43.1*T*LN(T);  6.00000E+03  N !
 FUNCTION YFELIQ     2.98150E+02  +VFELIQ#*EXP(-EFELIQ#);   6.00000E+03   N !
 FUNCTION ZFELIQ     2.98150E+02  +1*LN(XFELIQ#);   6.00000E+03   N !
 FUNCTION GPFELIQ    2.98150E+02  +YFELIQ#*EXP(ZFELIQ#);   6.00000E+03   N !
 FUNCTION GHSERFE    2.98140E+02  +1225.7+124.134*T-23.5143*T*LN(T)
     -.00439752*T**2-5.8927E-08*T**3+77359*T**(-1);  1.81100E+03  Y
      -25383.581+299.31255*T-46*T*LN(T)+2.29603E+31*T**(-9);  6.00000E+03  N 
     !
 FUNCTION GFELIQ     2.98140E+02  +12040.17-6.55843*T-3.6751551E-21*T**7
     +GHSERFE#;  1.81100E+03  Y
      -10839.7+291.302*T-46*T*LN(T);  6.00000E+03  N !
 FUNCTION GHSERV     2.98150E+02  -7930.43+133.346053*T-24.134*T*LN(T)
     -.003098*T**2+1.2175E-07*T**3+69460*T**(-1);  7.90000E+02  Y
      -7967.842+143.291093*T-25.9*T*LN(T)+6.25E-05*T**2-6.8E-07*T**3;  
     2.18300E+03  Y
      -41689.864+321.140783*T-47.43*T*LN(T)+6.44389E+31*T**(-9);  
     4.00000E+03  N !
 FUNCTION GVLIQ      2.98150E+02  +GHSERV#+20764.117-9.455552*T
     -5.19136E-22*T**7;  2.18300E+03  Y
      -19617.51+311.055983*T-47.43*T*LN(T);  4.00000E+03  N !
 FUNCTION GZRLIQ     2.98150E+02  +10320.095+116.568238*T-24.1618*T*LN(T)
     -.00437791*T**2+34971*T**(-1)+1.6275E-22*T**7;  2.12800E+03  Y
      -8281.26+253.812609*T-42.144*T*LN(T);  6.00000E+03  N !
 FUNCTION GMOLIQ     2.98150E+02  +34085.045+117.224788*T-23.56414*T*LN(T)
     -.003443396*T**2+5.66283E-07*T**3+65812*T**(-1)-1.30927E-10*T**4
     +4.24519E-22*T**7;  2.89600E+03  Y
      +3538.963+271.6697*T-42.63829*T*LN(T);  5.00000E+03  N !
 FUNCTION GHFLIQ     2.98150E+02  +20414.959+99.790933*T-22.7075*T*LN(T)
     -.004146145*T**2-4.77E-10*T**3-22590*T**(-1);  1.00000E+03  Y
      +49731.499-149.91739*T+12.116812*T*LN(T)-.021262021*T**2
     +1.376466E-06*T**3-4449699*T**(-1);  2.50600E+03  Y
      -4247.217+265.470523*T-44*T*LN(T);  6.00000E+03  N !
 FUNCTION GCOFCC     2.98150E+02  +427.591-.615248*T+GHSERCO#;   6.00000E+03 
       N !
 FUNCTION GHSERCR    2.98150E+02  -8856.94+157.48*T-26.908*T*LN(T)
     +.00189435*T**2-1.47721E-06*T**3+139250*T**(-1);  2.18000E+03  Y
      -34869.344+344.18*T-50*T*LN(T)-2.88526E+32*T**(-9);  6.00000E+03  N !
 FUNCTION GCRFCC     2.98150E+02  +7284+.163*T+GHSERCR#;   6.00000E+03   N !
 FUNCTION GWFCC      2.98150E+02  +19300+.63*T+GHSERWW#;   6.00000E+03   N !
 FUNCTION GTABCC     2.98140E+02  -7285.889+119.139857*T-23.7592624*T*LN(T)
     -.002623033*T**2+1.70109E-07*T**3-3293*T**(-1);  1.30000E+03  Y
      -22389.955+243.88676*T-41.137088*T*LN(T)+.006167572*T**2
     -6.55136E-07*T**3+2429586*T**(-1);  2.50000E+03  Y
      +229382.886-722.59722*T+78.5244752*T*LN(T)-.017983376*T**2
     +1.95033E-07*T**3-93813648*T**(-1);  3.29000E+03  Y
      -1042384.01+2985.49125*T-362.159132*T*LN(T)+.043117795*T**2
     -1.055148E-06*T**3+5.54714342E+08*T**(-1);  6.00000E+03  N !
 FUNCTION GTAFCC     2.98150E+02  +16000+1.7*T+GTABCC#;   6.00000E+03   N !
 FUNCTION GHSERTI    2.98140E+02  -8059.921+133.615208*T-23.9933*T*LN(T)
     -.004777975*T**2+1.06716E-07*T**3+72636*T**(-1);  9.00000E+02  Y
      -7811.815+132.988068*T-23.9887*T*LN(T)-.0042033*T**2-9.0876E-08*T**3
     +42680*T**(-1);  1.15500E+03  Y
      +908.837+66.976538*T-14.9466*T*LN(T)-.0081465*T**2+2.02715E-07*T**3
     -1477660*T**(-1);  1.94099E+03  Y
      -124526.786+638.806871*T-87.2182461*T*LN(T)+.008204849*T**2
     -3.04747E-07*T**3+36699805*T**(-1);  4.00000E+03  N !
 FUNCTION GTIFCC     2.98150E+02  +6000-.1*T+GHSERTI#;   6.00000E+03   N !
 FUNCTION GHEXTNB    2.98150E+02  -8519.35+142.048*T-26.4711*T*LN(T)
     +2.03475E-04*T**2-3.50119E-07*T**3+93398.8*T**(-1);   6.00000E+03   N !
 FUNCTION GHSERNI    2.98150E+02  -5179.159+117.854*T-22.096*T*LN(T)
     -.0048407*T**2;  1.72800E+03  Y
      -27840.655+279.135*T-43.1*T*LN(T)+1.12754E+31*T**(-9);  6.00000E+03  N 
     !
 FUNCTION GFEFCC     2.98140E+02  -1462.4+8.282*T-1.15*T*LN(T)+6.4E-04*T**2
     +GHSERFE#;  1.81100E+03  Y
      -27098.266+300.25256*T-46*T*LN(T)+2.78854E+31*T**(-9);  6.00000E+03  N 
     !
 FUNCTION YFEFCC     2.98150E+02  +VFEFCC#*EXP(-EFEFCC#);   6.00000E+03   N !
 FUNCTION ZFEFCC     2.98150E+02  +1*LN(XFEFCC#);   6.00000E+03   N !
 FUNCTION GPFEFCC    2.98150E+02  +YFEFCC#*EXP(ZFEFCC#);   6.00000E+03   N !
 FUNCTION GVFCC      2.98150E+02  +GHSERV#+7500+1.7*T;  4.00000E+03  N !
 FUNCTION GHSERZR    2.98150E+02  -7827.595+125.64905*T-24.1618*T*LN(T)
     -.00437791*T**2+34971*T**(-1);  2.12800E+03  Y
      -26085.921+262.724183*T-42.144*T*LN(T)-1.342896E+31*T**(-9);  
     6.00000E+03  N !
 FUNCTION GZRFCC     2.98150E+02  +GHSERZR#+7600-.9*T;   6.00000E+03   N !
 FUNCTION GMOFCC     2.98150E+02  +7453.698+132.5497*T-23.56414*T*LN(T)
     -.003443396*T**2+5.66283E-07*T**3+65812*T**(-1)-1.30927E-10*T**4;  
     2.89600E+03  Y
      -15356.41+284.189746*T-42.63829*T*LN(T)-4.849315E+33*T**(-9);  
     5.00000E+03  N !
 FUNCTION GHSERHF    2.98150E+02  -6987.297+110.744026*T-22.7075*T*LN(T)
     -.004146145*T**2-4.77E-10*T**3-22590*T**(-1);  2.50600E+03  Y
      -1446776.33+6193.60999*T-787.536383*T*LN(T)+.1735215*T**2
     -7.575759E-06*T**3+5.01742495E+08*T**(-1);  6.00000E+03  N !
 FUNCTION A0         2.98150E+02  -54661+7.012*T-.0012958*T**2;   
     6.00000E+03   N !
 FUNCTION A1         2.98150E+02  +29646.2-.467*T;   6.00000E+03   N !
 FUNCTION GFTAC      2.98150E+02  -163843.55+266.90346*T-44.957558*T*LN(T)
     -.0036198014*T**2+594677.55*T**(-1)-2.3106742E+09*T**(-3)
     +1.1923702E+13*T**(-5)-3.5155676E+16*T**(-7);   6.00000E+03   N !
 FUNCTION GHSERTIC   2.98150E+02  -194244+264.4*T-42.248*T*LN(T)
     -.0044617*T**2+31263*T**(-1)+6.96E+09*T**(-3);   6.00000E+03   N !
 FUNCTION GFNBC      2.98150E+02  -153054+563374*T**(-1)+283.912*T
     -46.34274*T*LN(T)-.0029287*T**2-1.02788144E+09*T**(-3);   6.00000E+03   
     N !
 FUNCTION GHSERMO    2.98150E+02  -7746.302+131.9197*T-23.56414*T*LN(T)
     -.003443396*T**2+5.66283E-07*T**3+65812*T**(-1)-1.30927E-10*T**4;  
     2.89600E+03  Y
      -30556.41+283.559746*T-42.63829*T*LN(T)-4.849315E+33*T**(-9);  
     5.00000E+03  N !
 FUNCTION UCO3V      2.98150E+02  -5370;   6.00000E+03   N !
 FUNCTION UCO2V2     2.98150E+02  -2380;   6.00000E+03   N !
 FUNCTION UCOV3      2.98150E+02  -2380;   6.00000E+03   N !
 FUNCTION SCO3V      2.98150E+02  +UCO3V#;   6.00000E+03   N !
 FUNCTION SCO2V2     2.98150E+02  +UCO2V2#;   6.00000E+03   N !
 FUNCTION SCOV3      2.98150E+02  +UCOV3#;   6.00000E+03   N !
 FUNCTION LDIS0      2.98150E+02  +3*UCO3V#+6*UCO2V2#+3*UCOV3#+.375*SCO3V#
     +.75*SCO2V2#+.375*SCOV3#;   6.00000E+03   N !
 FUNCTION LDIS1      2.98150E+02  +6*UCO3V#-6*UCOV3#+.75*SCO3V#-.75*SCOV3#;  
      6.00000E+03   N !
 FUNCTION LDIS2      2.98150E+02  +3*UCO3V#-6*UCO2V2#+3*UCOV3#-1.5*SCO2V2#;  
      6.00000E+03   N !
 FUNCTION LDIS3      2.98150E+02  -.75*SCO3V#+.75*SCOV3#;   6.00000E+03   N !
 FUNCTION LDIS4      2.98150E+02  -.375*SCO3V#+.75*SCO2V2#-.375*SCOV3#;   
     6.00000E+03   N !
 FUNCTION GFWN       2.98150E+02  -40752.746+259.88468*T-45.443666*T*LN(T)
     +237083*T**(-1)-.0046519123*T**2;   6.00000E+03   N !
 FUNCTION GFTAN      2.98150E+02  -227346.96+217.04606*T-38.562774*T*LN(T)
     -.0076779396*T**2;   6.00000E+03   N !
 FUNCTION GHSERTIN   2.98150E+02  -357904.75+330.49827*T-52.458723*T*LN(T)
     -9.2840476E-04*T**2+871489.25*T**(-1)-2.4139721E+09*T**(-3);   
     6.00000E+03   N !
 FUNCTION GFNBN      2.98150E+02  -227779+120.567*T-4*T*LN(T)+GHSERNB#
     +GHSERNN#;   6.00000E+03   N !
 FUNCTION ZERO       298.15 0.0; 6000.00  N !
 FUNCTION VFELIQ     2.98150E+02  +6.46677E-06*EXP(AFELIQ#);   6.00000E+03   
     N !
 FUNCTION EFELIQ     2.98150E+02  +1*LN(CFELIQ#);   6.00000E+03   N !
 FUNCTION XFELIQ     2.98150E+02  +1*EXP(.8484467*DFELIQ#)-1;   6.00000E+03  
      N !
 FUNCTION VFEFCC     2.98150E+02  +6.688726E-06*EXP(AFEFCC#);   6.00000E+03  
      N !
 FUNCTION EFEFCC     2.98150E+02  +1*LN(CFEFCC#);   6.00000E+03   N !
 FUNCTION XFEFCC     2.98150E+02  +1*EXP(.8064454*DFEFCC#)-1;   6.00000E+03  
      N !
 FUNCTION AFELIQ     2.98150E+02  +1.135E-04*T;   6.00000E+03   N !
 FUNCTION CFELIQ     2.98150E+02  +4.22534787E-12+2.71569924E-14*T;   
     6.00000E+03   N !
 FUNCTION DFELIQ     2.98150E+02  +1*LN(BFELIQ#);   6.00000E+03   N !
 FUNCTION AFEFCC     2.98150E+02  +7.3097E-05*T;   6.00000E+03   N !
 FUNCTION CFEFCC     2.98150E+02  +2.62285341E-11+2.71455808E-16*T;   
     6.00000E+03   N !
 FUNCTION DFEFCC     2.98150E+02  +1*LN(BFEFCC#);   6.00000E+03   N !
 FUNCTION BFELIQ     2.98150E+02  +1+4.98009787E-12*P+3.20078924E-14*T*P;   
     6.00000E+03   N !
 FUNCTION BFEFCC     2.98150E+02  +1+3.25236341E-11*P+3.36607808E-16*T*P;   
     6.00000E+03   N !
 FUNCTION UN_ASS     2.98150E+02  0.0 ;  3.00000E+02  N !
 
 TYPE_DEFINITION % SEQ *!
 DEFINE_SYSTEM_DEFAULT ELEMENT 2 !
 DEFAULT_COMMAND DEF_SYS_ELEMENT VA /- !


 TYPE_DEFINITION & GES A_P_D FCC_A1 MAGNETIC  -3.0    2.80000E-01 !
 PHASE FCC_A1  %&  2 1   1 !
    CONSTITUENT FCC_A1  :CO,TI,V : VA :  !

   PARAMETER G(FCC_A1,CO:VA;0)  2.98150E+02  +GCOFCC#;   6.00000E+03   N 
  REF0 !
   PARAMETER TC(FCC_A1,CO:VA;0)  2.98150E+02  1395.998;   6.00000E+03   N 
  REF0 !
   PARAMETER BMAGN(FCC_A1,CO:VA;0)  2.98150E+02  1.35;   6.00000E+03   N 
  REF0 !
   PARAMETER G(FCC_A1,TI:VA;0)  2.98150E+02  +GTIFCC#;   6.00000E+03   N 
  REF0 !
   PARAMETER G(FCC_A1,V:VA;0)  2.98500E+02  +GVFCC#;  6.00000E+03  N REF0 !
   PARAMETER G(FCC_A1,CO,TI:VA;0)  2.98150E+02  -77800-7.4*T;   6.00000E+03  
   N REF0 !
   PARAMETER G(FCC_A1,CO,TI:VA;1)  2.98150E+02  -1300;   6.00000E+03   N 
  REF0 !
   PARAMETER TC(FCC_A1,CO,TI:VA;0)  2.98150E+02  -1400;   6.00000E+03   N 
  REF0 !
   PARAMETER TC(FCC_A1,CO,V:VA;0)  2.98150E+02  -4140;   6.00000E+03   N 
  REF0 !
   PARAMETER G(FCC_A1,CO,V:VA;0)  2.98150E+02  +LDIS0#-7000+9.3*T;   
  6.00000E+03   N REF0 !
   PARAMETER G(FCC_A1,CO,V:VA;1)  2.98150E+02  +LDIS1#;   6.00000E+03   N 
  REF0 !
   PARAMETER G(FCC_A1,CO,V:VA;2)  2.98150E+02  +LDIS2#;   6.00000E+03   N 
  REF0 !
   PARAMETER G(FCC_A1,CO,V:VA;3)  2.98150E+02  +LDIS3#;   6.00000E+03   N 
  REF0 !
   PARAMETER G(FCC_A1,CO,V:VA;4)  2.98150E+02  +LDIS4#;   6.00000E+03   N 
  REF0 !

 LIST_OF_REFERENCES
 NUMBER  SOURCE
  ! 
 
