$ Database file written 2018-05-08
$     
 ELEMENT /-   ELECTRON_GAS              0.0000E+00  0.0000E+00  0.0000E+00!
 ELEMENT VA   VACUUM                    0.0000E+00  0.0000E+00  0.0000E+00!
 ELEMENT CR   BCC_A2                    5.1996E+01  4.0500E+03  2.3560E+01!
 ELEMENT NB   BCC_A2                    9.2906E+01  5.2200E+03  3.6270E+01!
 ELEMENT SN   BCT_A5                    9.2906E+01  5.2200E+03  3.6270E+01!
 ELEMENT ZR   HCP_A3                    9.1224E+01  5.5663E+03  3.9181E+01!
  
 FUNCTION GHSERCR   298.15 -8856.94+157.48*T-26.908*T*LN(T)+.00189435*T**2
     -1.47721E-06*T**3+139250*T**(-1); 2180 Y
      -34869.344+344.18*T-50*T*LN(T)-2.88526E+32*T**(-9); 6000 N !
 FUNCTION GLIQCR    298.15 +GHSERCR#+24339.955-11.420225*T+2.37615E-21*T**7; 
     2180 Y
      -16459.984+335.616316*T-50*T*LN(T); 6000 N !
 FUNCTION GFCCCR    298.15 +GHSERCR#+7284+.163*T; 6000 N !
 FUNCTION GHCPCR    298.15 +GHSERCR#+4438; 6000 N !
 
 FUNCTION GHSERNB   298.15 -8519.353+142.045475*T-26.4711*T*LN(T)
     +2.03475E-04*T**2-3.5012E-07*T**3+93399*T**(-1); 2750 Y
      -37669.3+271.720843*T-41.77*T*LN(T)+1.528238E+32*T**(-9); 6000 N !
 FUNCTION GLIQNB    298.15 +GHSERNB#+29781.555-10.816418*T-3.06098E-23*T**7; 
     2750 Y
      -7499.398+260.756148*T-41.77*T*LN(T); 6000 N !
 FUNCTION GFCCNB    298.15 +GHSERNB#+13500+1.7*T; 6000 N !
 FUNCTION GHCPNB    298.15 +GHSERNB#+10000+2.4*T; 6000 N !

 FUNCTION GHSERSN   100 -7958.517+122.765451*T-25.858*T*LN(T)
     +5.1185E-04*T**2-3.192767E-06*T**3+18440*T**(-1); 250 Y
      -5855.135+65.443315*T-15.961*T*LN(T)-.0188702*T**2+3.121167E-06*T**3
     -61960*T**(-1); 505.08 Y
      +2524.724+4.005269*T-8.2590486*T*LN(T)-.016814429*T**2
     +2.623131E-06*T**3-1081244*T**(-1)-1.2307E+25*T**(-9); 800 Y
      -8256.959+138.99688*T-28.4512*T*LN(T)-1.2307E+25*T**(-9); 3000 N !
 FUNCTION GLIQSN    100 +GHSERSN#+7103.092-14.087767*T+1.47031E-18*T**7; 
     505.08 Y
      +9496.31-9.809114*T-8.2590486*T*LN(T)-.016814429*T**2
     +2.623131E-06*T**3-1081244*T**(-1); 800 Y
      -1285.372+125.182498*T-28.4512*T*LN(T); 3000 N !
 FUNCTION GFCCSN    100 +GHSERSN#+5510-8.46*T; 3000 N !
 FUNCTION GBCCSN    100 +GHSERSN#+4400-6*T; 3000 N !
 FUNCTION GHCPSN    100 +GHSERSN#+3900-7.646*T; 3000 N !

 FUNCTION GHSERZR   130 -7827.595+125.64905*T-24.1618*T*LN(T)-.00437791*T**2
     +34971*T**(-1); 2128 Y
      -26085.921+262.724183*T-42.144*T*LN(T)-1.342896E+31*T**(-9); 6000 N !
 FUNCTION GLIQZR    298.15 +GHSERZR#+18147.69-9.080812*T+1.6275E-22*T**7; 
     2128 Y
      -8281.26+253.812609*T-42.144*T*LN(T); 6000 N !
 FUNCTION GFCCZR    298.15 +GHSERZR#+7600-.9*T; 6000 N !
 FUNCTION GBCCZR    298.15 -525.539+124.9457*T-25.607406*T*LN(T)
     -3.40084E-04*T**2-9.729E-09*T**3+25233*T**(-1)-7.6143E-11*T**4; 2128 Y
      -30705.955+264.284163*T-42.144*T*LN(T)+1.276058E+32*T**(-9); 6000 N !
 FUNCTION UN_ASS    298.15 +0.0; 300 N !

 TYPE_DEFINITION % SEQ *!
 DEFINE_SYSTEM_DEFAULT ELEMENT 2 !
 DEFAULT_COMMAND DEF_SYS_ELEMENT VA /- !


 PHASE LIQUID:L %  1  1.0  !
    CONSTITUENT LIQUID:L :CR,NB,SN,ZR :  !

   PARAMETER G(LIQUID,CR;0)           298.15 +GLIQCR#; 6000 N!
   PARAMETER G(LIQUID,NB;0)           298.15 +GLIQNB#; 6000 N!
   PARAMETER G(LIQUID,SN;0)           298.15 +GLIQSN#; 6000 N!
   PARAMETER G(LIQUID,ZR;0)           298.15 +GLIQZR#; 6000 N!
   PARAMETER G(LIQUID,CR,NB;0)        298.15 -9.80133887E+03; 6000 N!
   PARAMETER G(LIQUID,CR,NB;1)        298.15 +2.64365541E+03; 6000 N!
   PARAMETER G(LIQUID,CR,SN;0)        298.15 +102321.4-57.46*T; 6000 N!
   PARAMETER G(LIQUID,CR,SN;1)        298.15 +11102; 6000 N!
   PARAMETER G(LIQUID,CR,SN;2)        298.15 -20421.1; 6000 N!
   PARAMETER G(LIQUID,CR,SN;3)        298.15 -13611.1; 6000 N!
   PARAMETER G(LIQUID,CR,ZR;0)        298.15 -5.3900910E+03-1.5966076*T; 
   6000 N!
   PARAMETER G(LIQUID,CR,ZR;1)        298.15 -1.5555731E+03-.74677683*T; 
   6000 N!
   PARAMETER G(LIQUID,CR,ZR;2)        298.15 -8.2848000E+03+.92113665*T; 
   6000 N!
   PARAMETER G(LIQUID,NB,SN;0)        298.15 19380.504; 6000 N  !
   PARAMETER G(LIQUID,NB,SN;1)        298.15 13332.524-13.048484*T; 6000 N!
   PARAMETER G(LIQUID,NB,ZR;0)        298.15 +1.3191882E+04; 6000 N!
   PARAMETER G(LIQUID,NB,ZR;1)        298.15 +1.0054607E+04; 6000 N!
   PARAMETER G(LIQUID,SN,ZR;0)        298.15 -1.04315795E+05
   -1.93095423E+01*T; 6000 N!
   PARAMETER G(LIQUID,SN,ZR;1)        298.15 1.25541031E+04; 6000 N!

   
   
 PHASE FCC_A1  %  2 1   1 !
    CONSTITUENT FCC_A1  :CR,NB,SN,ZR : VA :  !

   PARAMETER G(FCC_A1,CR:VA;0)        298.15 +GFCCCR#; 6000 N!
   PARAMETER TC(FCC_A1,CR:VA;0)       298.15 -1109; 6000 N!
   PARAMETER BMAGN(FCC_A1,CR:VA;0)    298.15 -2.46; 6000 N!
   PARAMETER G(FCC_A1,NB:VA;0)        298.15 +GFCCNB#; 6000 N!
   PARAMETER G(FCC_A1,SN:VA;0)        298.15 +GFCCSN#; 6000 N!
   PARAMETER G(FCC_A1,ZR:VA;0)        298.15 +GFCCZR#; 6000 N!
   PARAMETER G(FCC_A1,CR,NB:VA;0)     298.15 -1560+10*T; 6000 N!
   PARAMETER G(FCC_A1,CR,NB:VA;1)     298.15 +100710; 6000 N! 
   PARAMETER G(FCC_A1,CR,SN:VA;0)     298.15 +147582; 6000 N!
   PARAMETER G(FCC_A1,CR,SN:VA;1)     298.15 -184890; 6000 N! 
   PARAMETER G(FCC_A1,CR,ZR:VA;0)     298.15 4.7603600E+01; 6000 N!
   PARAMETER G(FCC_A1,CR,ZR:VA;1)     298.15 9.6554800E+01; 6000 N! 
   PARAMETER G(FCC_A1,NB,SN:VA;0)     298.15 6588.133+10.001*T; 6000 N!
   PARAMETER G(FCC_A1,NB,SN:VA;1)     298.15 -156019.16; 6000 N!
   PARAMETER G(FCC_A1,NB,ZR:VA;0)     298.15 21463; 6000 N!
   PARAMETER G(FCC_A1,NB,ZR:VA;1)     298.15 6868; 6000 N!
   PARAMETER G(FCC_A1,SN,ZR:VA;0)     298.15 -70201; 6000 N!
   PARAMETER G(FCC_A1,SN,ZR:VA;1)     298.15 -87785; 6000 N!   
   
 TYPE_DEFINITION & GES A_P_D BCC_A2 MAGNETIC  -1.0    4.00000E-01 !
 PHASE BCC_A2  %&  2 1   3 !
    CONSTITUENT BCC_A2  :CR,NB,SN,ZR : VA :  !

   PARAMETER G(BCC_A2,CR:VA;0)        298.15 +GHSERCR#; 6000 N!
   PARAMETER TC(BCC_A2,CR:VA;0)       298.15 -311.5; 6000 N!
   PARAMETER BMAGN(BCC_A2,CR:VA;0)    298.15 -.008; 6000 N!
   PARAMETER G(BCC_A2,NB:VA;0)        298.15 +GHSERNB#; 6000 N!
   PARAMETER G(BCC_A2,SN:VA;0)        298.15 +GBCCSN#; 6000 N!
   PARAMETER G(BCC_A2,ZR:VA;0)        298.15 +GBCCZR#; 6000 N!
   PARAMETER G(BCC_A2,CR,NB:VA;0)     298.15 +5.24229930E+04
   -1.60494401E+01*T; 6000 N!
   PARAMETER G(BCC_A2,CR,NB:VA;1)     298.15 +1.1827496E+04; 6000 N!
   PARAMETER G(BCC_A2,CR,SN:VA;0)     298.15 +240000; 6000 N!
   PARAMETER G(BCC_A2,CR,SN:VA;1)     298.15 +105000; 6000 N!
   PARAMETER G(BCC_A2,CR,ZR:VA;0)     298.15 7.5831825E+04-31.779770*T; 
   6000 N!
   PARAMETER G(BCC_A2,CR,ZR:VA;1)     298.15 1.7682776E+04-11.343029*T; 
   6000 N!   
   PARAMETER G(BCC_A2,NB,SN:VA;0)     298.15 60092.859-15.72255*T; 6000 N!
   PARAMETER G(BCC_A2,NB,SN:VA;1)     298.15 -130164+46.723093*T; 6000 N! 
   PARAMETER G(BCC_A2,NB,ZR:VA;0)     298.15 +1.4389575E+04
   +4.2621477*T; 6000 N!
   PARAMETER G(BCC_A2,NB,ZR:VA;1)     298.15 +3.4170688E+03; 6000 N!
   PARAMETER G(BCC_A2,SN,ZR:VA;0)     298.15 -6.96910873E+04
   -3.83404445E+01*T; 6000 N!
   PARAMETER G(BCC_A2,SN,ZR:VA;1)     298.15 6.68508329E+04
   -3.05051500E+01*T; 6000 N!
   PARAMETER  G(BCC_A2,CR,NB,ZR:VA;0)  298.15    -5000;   6000  N!
   PARAMETER  G(BCC_A2,CR,NB,ZR:VA;1)  298.15   -10200;   6000  N!
   PARAMETER  G(BCC_A2,CR,NB,ZR:VA;2)  298.15    69500;   6000  N!
   PARAMETER  G(BCC_A2,NB,SN,ZR:VA;0)  298.15  -320000;   6000  N!
   PARAMETER  G(BCC_A2,NB,SN,ZR:VA;1)  298.15        0;   6000  N!
   PARAMETER  G(BCC_A2,NB,SN,ZR:VA;2)  298.15   -95000;   6000  N!   
   
 PHASE HCP_A3  %  2 1   .5 !
    CONSTITUENT HCP_A3  :CR,NB,SN,ZR : VA : !

   PARAMETER G(HCP_A3,CR:VA;0)     298.15 +GHCPCR#; 6000 N!
   PARAMETER TC(HCP_A3,CR:VA;0)    298.15 -1109; 6000 N!
   PARAMETER BMAGN(HCP_A3,CR:VA;0) 298.15 -2.46; 6000 N!
   PARAMETER G(HCP_A3,NB:VA;0)     298.15 +GHCPNB#; 6000 N!
   PARAMETER G(HCP_A3,SN:VA;0)     298.15 +GHCPSN#; 6000 N!
   PARAMETER G(HCP_A3,ZR:VA;0)     298.15 +GHSERZR#; 6000 N!
   PARAMETER G(HCP_A3,CR,NB:VA;0)  298.15 -37923.5+20*T; 6000 N!
   PARAMETER G(HCP_A3,CR,NB:VA;1)  298.15 +15349.5; 6000 N!   
   PARAMETER G(HCP_A3,CR,SN:VA;0)  298.15 +144328; 6000 N!
   PARAMETER G(HCP_A3,CR,SN:VA;1)  298.15 -129100; 6000 N!
   PARAMETER G(HCP_A3,CR,ZR:VA;0)  298.15 3.4447487E+04+45*T; 
   6000 N!
   PARAMETER G(HCP_A3,CR,ZR:VA;1)  298.15 3.4012014E+04+20.00452*T; 
   6000 N!
   PARAMETER G(HCP_A3,NB,SN:VA;0)  298.15 -23738.459+50*T; 6000 N!
   PARAMETER G(HCP_A3,NB,SN:VA;1)  298.15 -1.5539143E+05; 6000 N!
   PARAMETER G(HCP_A3,NB,ZR:VA;0)  298.15 +2.4411000E+04; 6000 N!
   PARAMETER G(HCP_A3,SN,ZR:VA;0)  298.15 -9.45981738E+04
   +1.12409845*T; 6000 N!
   PARAMETER G(HCP_A3,SN,ZR:VA;1)  298.15 5.82243352E+04; 6000 N!

  
 PHASE BCT_A5  %  1  1.0  !
    CONSTITUENT BCT_A5  :SN :  !

   PARAMETER G(BCT_A5,SN;0)           100 +GHSERSN#; 3000 N!
   
 PHASE C54  %  2 2   1 !
    CONSTITUENT C54  :SN : ZR :  !

   PARAMETER G(C54,SN:ZR;0)               298.15 -1.31060501E+05
   -3.64625072E-01*T+2*GHSERSN#+GHSERZR#; 6000 N!

 PHASE DIAMOND_A4  %  1  1.0  !
    CONSTITUENT DIAMOND_A4  :SN :  !

   PARAMETER G(DIAMOND_A4,SN;0)       100 -9579.608+114.007785*T
  -22.972*T*LN(T)-.00813975*T**2+2.7288E-06*T**3+25615*T**(-1); 298.15 Y
   -9063.001+104.84654*T-21.5750771*T*LN(T)-.008575282*T**2
  +1.784447E-06*T**3-2544*T**(-1); 800 Y
   -10909.353+147.396537*T-28.4512*T*LN(T); 3000 N!
   
 PHASE ETA  %  3 5   3   1 !
    CONSTITUENT ETA  :ZR : SN : SN,VA :  !

   PARAMETER G(ETA,ZR:SN:SN;0)            298.15 -5.23879753E+05
   -7.56093705*T+4*GHSERSN#+5*GHSERZR#; 6000 N!
   PARAMETER G(ETA,ZR:SN:VA;0)            298.15 -4.46500931E+05-7.56093705*T
   +3*GHSERSN#+5*GHSERZR#; 6000 N!
   PARAMETER G(ETA,ZR:SN:SN,VA;0)         298.15 2.73186606E+02; 6000 N!
   PARAMETER G(ETA,ZR:SN:SN,VA;1)         298.15 -2.35345135E+04; 6000 N!
  
  
 PHASE LAVES_C14  %  3 4   2   6 !
  CONSTITUENT LAVES_C14  :CR,NB,SN,ZR : CR,NB,SN,ZR : CR,NB,SN,ZR :  !

$ Elements purs
	
   PARAMETER G(LAVES_C14,CR:CR:CR;0)    298.15 +342290.49
  +12*GHSERCR#; 6000 N!
   PARAMETER G(LAVES_C14,NB:NB:NB;0)    298.15 +188611.85
  +12*GHSERNB#; 6000 N!
   PARAMETER G(LAVES_C14,SN:SN:SN;0)    298.15 +136760.4
  +12*GHSERSN#; 6000 N!
   PARAMETER G(LAVES_C14,ZR:ZR:ZR;0)    298.15 +282926.23
  +12*GHSERZR#; 6000 N !

 
$ Cr-Nb  

   PARAMETER G(LAVES_C14,CR:NB:CR;0)    298.15 +591586.16
  +10*GHSERCR#+2*GHSERNB#; 6000 N!
  PARAMETER G(LAVES_C14,NB:CR:CR;0)     298.15 -20160.01+8*GHSERCR#
  +4*GHSERNB#; 6000 N!
   PARAMETER G(LAVES_C14,CR:CR:NB;0)    298.15 +723727.6+6*GHSERCR#
  +6*GHSERNB#; 6000 N!
   PARAMETER G(LAVES_C14,NB:NB:CR;0)    298.15 +106457.2+6*GHSERCR#
  +6*GHSERNB#; 6000 N!
   PARAMETER G(LAVES_C14,CR:NB:NB;0)    298.15 +930026+4*GHSERCR#
  +8*GHSERNB#; 6000 N!  
   PARAMETER G(LAVES_C14,NB:CR:NB;0)    298.15 +159921.66
  +2*GHSERCR#+10*GHSERNB#; 6000 N!

$ Cr-Sn 
  
   PARAMETER G(LAVES_C14,CR:SN:CR;0)    298.15 +493622+10*GHSERCR#
  +2*GHSERSN#; 6000 N!
  PARAMETER G(LAVES_C14,SN:CR:CR;0)    298.15 +434780+8*GHSERCR#
  +4*GHSERSN#; 6000 N!
   PARAMETER G(LAVES_C14,CR:CR:SN;0)    298.15 +514790+6*GHSERCR#
  +6*GHSERSN#; 6000 N!
   PARAMETER G(LAVES_C14,SN:SN:CR;0)    298.15 +1165881+6*GHSERCR#
  +6*GHSERSN#; 6000 N!
   PARAMETER G(LAVES_C14,CR:SN:SN;0)    298.15 +765356+4*GHSERCR#
  +8*GHSERSN#; 6000 N!
   PARAMETER G(LAVES_C14,SN:CR:SN;0)    298.15 +251386+2*GHSERCR#
  +10*GHSERSN#; 6000 N!
  
$ Cr-Zr
    
   PARAMETER G(LAVES_C14,CR:ZR:CR;0)    298.15 +675355.2+2*GHSERZR#
  +10*GHSERCR#; 6000 N !
  PARAMETER G(LAVES_C14,ZR:CR:CR;0)    298.15 -2.010158E+04-56.549943*T
   +4*GHSERZR#+8*GHSERCR#; 6000 N !
   PARAMETER G(LAVES_C14,CR:CR:ZR;0)    298.15 +809014.66
  +6*GHSERZR#+6*GHSERCR#; 6000 N !
   PARAMETER G(LAVES_C14,ZR:ZR:CR;0)    298.15 +166977.92
  +6*GHSERZR#+6*GHSERCR#; 6000 N !
   PARAMETER G(LAVES_C14,CR:ZR:ZR;0)    298.15 +1155553.45
  +8*GHSERZR#+4*GHSERCR#; 6000 N !
   PARAMETER G(LAVES_C14,ZR:CR:ZR;0)    298.15 +207810.99
  +10*GHSERZR#+2*GHSERCR#; 6000 N !
  
   PARAMETER G(LAVES_C14,CR,ZR:CR:CR;0) 298.15 2.0004E+04+10.044567*T;
   6000 N !
   PARAMETER G(LAVES_C14,ZR:CR:CR,ZR;0) 298.15 -2.250E+04-8.9287400*T; 
   6000 N !
 
$ Nb-Sn

   PARAMETER G(LAVES_C14,NB:SN:NB;0)    298.15 +84214+10*GHSERNB#
  +2*GHSERSN#; 6000 N !
   PARAMETER G(LAVES_C14,SN:NB:NB;0)    298.15 +216872+8*GHSERNB#
  +4*GHSERSN#; 6000 N !
   PARAMETER G(LAVES_C14,NB:NB:SN;0)    298.15 +359704+6*GHSERNB#
  +6*GHSERSN#; 6000 N !
   PARAMETER G(LAVES_C14,SN:SN:NB;0)    298.15 +163101+6*GHSERNB#
  +6*GHSERSN#; 6000 N !
   PARAMETER G(LAVES_C14,NB:SN:SN;0)    298.15 +759611+4*GHSERNB#
  +8*GHSERSN#; 6000 N !
   PARAMETER G(LAVES_C14,SN:NB:SN;0)    298.15 +182699+2*GHSERNB#
  +10*GHSERSN#; 6000 N !

$ Nb-Zr

   PARAMETER G(LAVES_C14,NB:ZR:NB;0)    298.15  +270876.57+10*GHSERNB#
   +2*GHSERZR#;  6000 N !
   PARAMETER G(LAVES_C14,ZR:NB:NB;0)    298.15  +31792.010+8*GHSERNB#
   +4*GHSERZR#;   6000 N !
   PARAMETER G(LAVES_C14,NB:NB:ZR;0)    298.15  +443420.54+6*GHSERNB#
   +6*GHSERZR#;  6000 N !
   PARAMETER G(LAVES_C14,ZR:ZR:NB;0)    298.15  +104099.37+6*GHSERNB#
   +6*GHSERZR#;  6000 N !
   PARAMETER G(LAVES_C14,NB:ZR:ZR;0)    298.15  +491049.23+4*GHSERNB#
   +8*GHSERZR#;  6000 N !  
   PARAMETER G(LAVES_C14,ZR:NB:ZR;0)    298.15  +244274.32+2*GHSERNB#
   +10*GHSERZR#;  6000 N !
 
$ Sn-Zr      

   PARAMETER G(LAVES_C14,SN:ZR:SN;0)    298.15    -7803.59+10*GHSERSN#
   +2*GHSERZR#;  6000 N !
   PARAMETER G(LAVES_C14,ZR:SN:SN;0)    298.15   218147.85+8*GHSERSN#
   +4*GHSERZR#;  6000 N !
   PARAMETER G(LAVES_C14,SN:SN:ZR;0)    298.15  -180800.47+6*GHSERSN#
   +6*GHSERZR#;  6000 N !
   PARAMETER G(LAVES_C14,ZR:ZR:SN;0)    298.15  -229854.69+6*GHSERSN#
   +6*GHSERZR#;  6000 N !
   PARAMETER G(LAVES_C14,SN:ZR:ZR;0)    298.15    65760.05+4*GHSERSN#
   +8*GHSERZR#;  6000 N !
   PARAMETER G(LAVES_C14,ZR:SN:ZR;0)    298.15   -97891.46+2*GHSERSN#
   +10*GHSERZR#;  6000 N !
 
$ Cr-Nb-Sn   

   PARAMETER G(LAVES_C14,CR:NB:SN;0)    298.15   676249.24+4*GHSERCR#
   +2*GHSERNB#+6*GHSERSN#;  6000 N !
   PARAMETER G(LAVES_C14,NB:SN:CR;0)    298.15   -17107.21+6*GHSERCR#
   +4*GHSERNB#+2*GHSERSN#;  6000 N !
   PARAMETER G(LAVES_C14,NB:CR:SN;0)    298.15   382817.78+2*GHSERCR#
   +4*GHSERNB#+6*GHSERSN#;  6000 N !
   PARAMETER G(LAVES_C14,SN:NB:CR;0)    298.15   383249.83+6*GHSERCR#
   +2*GHSERNB#+4*GHSERSN#;  6000 N !
   PARAMETER G(LAVES_C14,CR:SN:NB;0)    298.15   823755.82+4*GHSERCR#
   +6*GHSERNB#+2*GHSERSN#;  6000 N !
   PARAMETER G(LAVES_C14,SN:CR:NB;0)    298.15   308296.71+2*GHSERCR#
   +6*GHSERNB#+4*GHSERSN#;  6000 N !
 
$ Cr-Nb-Zr  

   PARAMETER G(LAVES_C14,CR:NB:ZR;0)    298.15   753299.46+4*GHSERCR#
   +2*GHSERNB#+6*GHSERZR#;  6000 N !
   PARAMETER G(LAVES_C14,ZR:NB:CR;0)    298.15    50676.13+6*GHSERCR#
   +2*GHSERNB#+4*GHSERZR#;  6000 N !
   PARAMETER G(LAVES_C14,NB:ZR:CR;0)    298.15   232336.69+6*GHSERCR#
   +4*GHSERNB#+2*GHSERZR#;  6000 N !
   PARAMETER G(LAVES_C14,NB:CR:ZR;0)    298.15   335767.45+2*GHSERCR#
   +4*GHSERNB#+6*GHSERZR#;  6000 N !
   PARAMETER G(LAVES_C14,ZR:CR:NB;0)    298.15    60678.11+2*GHSERCR#
   +6*GHSERNB#+4*GHSERZR#;  6000 N !
   PARAMETER G(LAVES_C14,CR:ZR:NB;0)    298.15   986560.03+4*GHSERCR#
   +6*GHSERNB#+2*GHSERZR#;  6000 N !

$ Cr-Sn-Zr 
  
   PARAMETER G(LAVES_C14,ZR:SN:CR;0)    298.15  -192018.13-40*T+6*GHSERCR#
   +2*GHSERSN#+4*GHSERZR#; 6000 N !
   PARAMETER G(LAVES_C14,SN:CR:ZR;0)    298.15  132860.41+2*GHSERCR#
   +4*GHSERSN#+6*GHSERZR#;  6000 N !
   PARAMETER G(LAVES_C14,SN:ZR:CR;0)    298.15  407848.31+6*GHSERCR#
   +4*GHSERSN#+2*GHSERZR#;  6000 N !
   PARAMETER G(LAVES_C14,CR:SN:ZR;0)    298.15  966809.95+4*GHSERCR#
   +2*GHSERSN#+6*GHSERZR#;  6000 N !
   PARAMETER G(LAVES_C14,CR:ZR:SN;0)    298.15  531853.43+4*GHSERCR#
   +6*GHSERSN#+2*GHSERZR#;  6000 N !
   PARAMETER G(LAVES_C14,ZR:CR:SN;0)    298.15  -77206.91+2*GHSERCR#
   +6*GHSERSN#+4*GHSERZR#;  6000 N !
   PARAMETER G(LAVES_C14,ZR:CR,SN:CR;0) 298.15 -105000; 
   6000 N !
   
$ Nb-Sn-Zr 

   PARAMETER G(LAVES_C14,SN:NB:ZR;0)    298.15    70870.84+2*GHSERNB#
   +4*GHSERSN#+6*GHSERZR#;  6000 N !
   PARAMETER G(LAVES_C14,ZR:NB:SN;0)    298.15  -138571.36+2*GHSERNB#
   +6*GHSERSN#+4*GHSERZR#;  6000 N !
   PARAMETER G(LAVES_C14,NB:ZR:SN;0)    298.15   306588.24+4*GHSERNB#
   +6*GHSERSN#+2*GHSERZR#;  6000 N !
   PARAMETER G(LAVES_C14,NB:SN:ZR;0)    298.15   232854.78+4*GHSERNB#
   +2*GHSERSN#+6*GHSERZR#;  6000 N !
   PARAMETER G(LAVES_C14,ZR:SN:NB;0)    298.15  -171874.56+6*GHSERNB#
   +2*GHSERSN#+4*GHSERZR#;  6000 N !
   PARAMETER G(LAVES_C14,SN:ZR:NB;0)    298.15   205489.37+6*GHSERNB#
   +4*GHSERSN#+2*GHSERZR#;  6000 N !


 PHASE LAVES_C15  %  2 2   1 !
    CONSTITUENT LAVES_C15  :CR,NB,SN,ZR : CR,NB,SN,ZR :  !

   PARAMETER G(LAVES_C15,CR:CR;0)       298.15 +81517.9+3*GHSERCR#; 
   6000 N!
   PARAMETER G(LAVES_C15,NB:NB;0)       298.15 +49852.8+3*GHSERNB#; 
   6000 N !
   PARAMETER G(LAVES_C15,SN:SN;0)       298.15 +41313.85+3*GHSERSN#;
   6000 N!
   PARAMETER G(LAVES_C15,ZR:ZR;0)       298.15 +88548.52+3*GHSERZR#;
   6000 N!
   PARAMETER G(LAVES_C15,CR:NB;0)       298.15 -1.1436335E+04
   -7.1542789*T+2*GHSERCR#+GHSERNB#; 6000 N!
   PARAMETER G(LAVES_C15,NB:CR;0)       298.15 +229013+2*GHSERNB#+GHSERCR#;
   6000 N!
   PARAMETER G(LAVES_C15,CR:SN;0)       298.15 +107211.75+GHSERCR#
  +2*GHSERSN#; 6000 N!   
   PARAMETER G(LAVES_C15,SN:CR;0)       298.15 +202124.875
  +2*GHSERCR#+GHSERSN#; 6000 N!
   PARAMETER G(LAVES_C15,CR:ZR;0)       298.15 -9.9730000E+03
   -11.421675*T+GHSERZR#+2*GHSERCR#; 6000 N!
   PARAMETER G(LAVES_C15,ZR:CR;0)       298.15 +313559.474
  +2*GHSERZR#+GHSERCR#; 6000 N!
   PARAMETER G(LAVES_C15,NB:SN;0)       298.15 +247308.2+GHSERNB#
  +2*GHSERSN#; 6000 N !	                
   PARAMETER G(LAVES_C15,SN:NB;0)       298.15 +51428.4+2*GHSERNB#
  +GHSERSN#; 6000 N !                   
   PARAMETER G(LAVES_C15,NB:ZR;0)       298.15 +13904.474
  +2*GHSERNB#+GHSERZR#; 6000 N!         
   PARAMETER G(LAVES_C15,ZR:NB;0)       298.15 145110
   +GHSERZR#+2*GHSERNB#; 6000 N!        
   PARAMETER G(LAVES_C15,SN:ZR;0)       298.15 73306.3
   +2*GHSERSN#+GHSERZR#;  6000 N  !  
   PARAMETER G(LAVES_C15,ZR:SN;0)       298.15 11556.64
   +2*GHSERZR#+GHSERSN#;  6000 N  !  
 
   PARAMETER G(LAVES_C15,CR:CR,ZR;0)    298.15 -8.9758835E+03; 6000 N!
   PARAMETER G(LAVES_C15,CR,ZR:ZR;0)    298.15 -1.5150000E+04; 6000 N!
   PARAMETER G(LAVES_C15,CR:CR,NB;0)    298.15 -4.1015233E+04; 6000 N!
   PARAMETER G(LAVES_C15,CR,NB:NB;0)    298.15 +4.0303103E+04; 6000 N!    
   PARAMETER G(LAVES_C15,CR:ZR,CR,NB;0) 298.15 -140650; 6000 N!
   PARAMETER G(LAVES_C15,CR:NB,ZR;0)    298.15 -18000;  6000 N!  
   
   

 PHASE LAVES_C36  %  3  4  4  16 !
  CONSTITUENT LAVES_C36  :CR,NB,SN,ZR : CR,NB,SN,ZR : CR,NB,SN,ZR :  !

$ Elements purs
	
   PARAMETER G(LAVES_C36,CR:CR:CR;0)    298.15 +621157
  +24*GHSERCR#; 6000 N!
   PARAMETER G(LAVES_C36,NB:NB:NB;0)    298.15 +392133
  +24*GHSERNB#; 6000 N!
   PARAMETER G(LAVES_C36,SN:SN:SN;0)    298.15 +297926
  +24*GHSERSN#; 6000 N!
   PARAMETER G(LAVES_C36,ZR:ZR:ZR;0)    298.15 +618996.87
  +24*GHSERZR#; 6000 N!
  
$ Cr-Nb
	  
   PARAMETER G(LAVES_C36,NB:CR:CR;0)    298.15 +344351+20*GHSERCR#
  +4*GHSERNB#; 6000 N!
   PARAMETER G(LAVES_C36,CR:NB:CR;0)    298.15 +355728+20*GHSERCR#
  +4*GHSERNB#; 6000 N!
   PARAMETER G(LAVES_C36,NB:NB:CR;0)    298.15 -63552+16*GHSERCR#
  +8*GHSERNB#; 6000 N!
   PARAMETER G(LAVES_C36,CR:CR:NB;0)    298.15 +3623516+8*GHSERCR#
  +16*GHSERNB#; 6000 N!
   PARAMETER G(LAVES_C36,NB:CR:NB;0)    298.15 +1124849+4*GHSERCR#
  +20*GHSERNB#; 6000 N!
   PARAMETER G(LAVES_C36,CR:NB:NB;0)    298.15 +1132038+4*GHSERCR#
  +20*GHSERNB#; 6000 N!
  
$ Cr-Sn  

   PARAMETER G(LAVES_C36,CR:SN:CR;0)    298.15 639785+20*GHSERCR#
  +4*GHSERSN#; 6000 N!
   PARAMETER G(LAVES_C36,SN:CR:CR;0)    298.15 +643667
  +20*GHSERCR#+4*GHSERSN#; 6000 N!
   PARAMETER G(LAVES_C36,SN:SN:CR;0)    298.15 +850251+16*GHSERCR#
  +8*GHSERSN#; 6000 N!
   PARAMETER G(LAVES_C36,CR:CR:SN;0)    298.15 +1590155+8*GHSERCR#
  +16*GHSERSN#; 6000 N!
   PARAMETER G(LAVES_C36,SN:CR:SN;0)    298.15 +967990
  +20*GHSERSN#+4*GHSERCR#; 6000 N!
   PARAMETER G(LAVES_C36,CR:SN:SN;0)    298.15 +942683+4*GHSERCR#
  +20*GHSERSN#; 6000 N!
  
$ Cr-Zr   
  
   PARAMETER G(LAVES_C36,ZR:CR:CR;0)    298.15 +407178.74
  +4*GHSERZR#+20*GHSERCR#; 6000 N!
   PARAMETER G(LAVES_C36,CR:ZR:CR;0)    298.15 +417367.15
  +4*GHSERZR#+20*GHSERCR#; 6000 N!
   PARAMETER G(LAVES_C36,ZR:ZR:CR;0)    298.15 -6.2568000E+04
   -101.41966*T+8*GHSERZR#+16*GHSERCR#; 6000 N!
   PARAMETER G(LAVES_C36,CR:CR:ZR;0)    298.15 +2011612.83
  +16*GHSERZR#+8*GHSERCR#; 6000 N!
   PARAMETER G(LAVES_C36,ZR:CR:ZR;0)    298.15 +1510437.04
  +20*GHSERZR#+4*GHSERCR#; 6000 N!
   PARAMETER G(LAVES_C36,CR:ZR:ZR;0)    298.15 +1518505.49
  +20*GHSERZR#+4*GHSERCR#; 6000 N!  
  
$ Nb-Sn 
  
   PARAMETER G(LAVES_C36,SN:NB:NB;0)    298.15 +331907+20*GHSERNB#
  +4*GHSERSN#; 6000 N !
   PARAMETER G(LAVES_C36,NB:SN:NB;0)    298.15 +371372+20*GHSERNB#
  +4*GHSERSN#; 6000 N !
   PARAMETER G(LAVES_C36,SN:SN:NB;0)    298.15 +431938+16*GHSERNB#
  +8*GHSERSN#; 6000 N !
   PARAMETER G(LAVES_C36,NB:NB:SN;0)    298.15 +1674961+8*GHSERNB#
  +16*GHSERSN#; 6000 N !
   PARAMETER G(LAVES_C36,NB:SN:SN;0)    298.15 +849588+4*GHSERNB#
  +20*GHSERSN#; 6000 N !
   PARAMETER G(LAVES_C36,SN:NB:SN;0)    298.15 +942463+4*GHSERNB#
  +20*GHSERSN#; 6000 N !

$ Nb-Zr

   PARAMETER G(LAVES_C36,NB:ZR:ZR;0)    298.15  840489.44+4*GHSERNB#
   +20*GHSERZR#;  6000 N !
   PARAMETER G(LAVES_C36,ZR:NB:ZR;0)    298.15  836181.9+4*GHSERNB#
   +20*GHSERZR#;  6000 N !
   PARAMETER G(LAVES_C36,NB:NB:ZR;0)    298.15  1046735.36+8*GHSERNB#
   +16*GHSERZR#;  6000 N !
   PARAMETER G(LAVES_C36,ZR:ZR:NB;0)    298.15  98448.0+16*GHSERNB#
   +8*GHSERZR#;  6000 N !
   PARAMETER G(LAVES_C36,NB:ZR:NB;0)    298.15  239672.86+20*GHSERNB#
   +4*GHSERZR#;  6000 N !
   PARAMETER G(LAVES_C36,ZR:NB:NB;0)    298.15  242056.29+20*GHSERNB#
   +4*GHSERZR#;  6000 N ! 

$ Sn-Zr  
  
   PARAMETER G(LAVES_C36,SN:ZR:ZR;0)    298.15  259599.3+4*GHSERSN#
   +20*GHSERZR#;  6000 N !
   PARAMETER G(LAVES_C36,ZR:SN:ZR;0)    298.15  289212.03+4*GHSERSN#
   +20*GHSERZR#;  6000 N !
   PARAMETER G(LAVES_C36,SN:SN:ZR;0)    298.15  101940.7+8*GHSERSN#
   +16*GHSERZR#;  6000 N !
   PARAMETER G(LAVES_C36,ZR:ZR:SN;0)    298.15  474299.2+16*GHSERSN#
   +8*GHSERZR#;  6000 N !
   PARAMETER G(LAVES_C36,SN:ZR:SN;0)    298.15  415645.01+20*GHSERSN#
   +4*GHSERZR#;  6000 N !
   PARAMETER G(LAVES_C36,ZR:SN:SN;0)    298.15  416498.92+20*GHSERSN#
   +4*GHSERZR#;  6000 N !  
   
$ Cr-Nb-Sn 
    
   PARAMETER G(LAVES_C36,NB:CR:SN;0)    298.15  1588883.81+4*GHSERCR#
   +4*GHSERNB#+16*GHSERSN#;  6000 N !
   PARAMETER G(LAVES_C36,NB:SN:CR;0)    298.15    145348.9+16*GHSERCR#
   +4*GHSERNB#+4*GHSERSN#;  6000 N !
   PARAMETER G(LAVES_C36,CR:NB:SN;0)    298.15  1501474.09+4*GHSERCR#
   +4*GHSERNB#+16*GHSERSN#;  6000 N !
   PARAMETER G(LAVES_C36,SN:NB:CR;0)    298.15   143498.78+16*GHSERCR#
   +4*GHSERNB#+4*GHSERSN#;  6000 N !
   PARAMETER G(LAVES_C36,CR:SN:NB;0)    298.15   983794.43+4*GHSERCR#
   +16*GHSERNB#+4*GHSERSN#;  6000 N !
   PARAMETER G(LAVES_C36,SN:CR:NB;0)    298.15   906444.02+4*GHSERCR#
   +16*GHSERNB#+4*GHSERSN#;  6000 N !
 
$ Cr-Nb-Zr  

   PARAMETER G(LAVES_C36,CR:ZR:NB;0)   298.15   847499.87+4*GHSERCR#
   +16*GHSERNB#+4*GHSERZR#;  6000 N !
   PARAMETER G(LAVES_C36,ZR:CR:NB;0)   298.15   829117.11+4*GHSERCR#
   +16*GHSERNB#+4*GHSERZR#;  6000 N !
   PARAMETER G(LAVES_C36,ZR:NB:CR;0)   298.15   -70241.42+15*T+16*GHSERCR#
   +4*GHSERNB#+4*GHSERZR#;  6000 N !
   PARAMETER G(LAVES_C36,CR:NB:ZR;0)   298.15   1756054.7+4*GHSERCR#
   +4*GHSERNB#+16*GHSERZR#;  6000 N ! 
   PARAMETER G(LAVES_C36,NB:ZR:CR;0)   298.15   -67631.61+15*T+16*GHSERCR#
   +4*GHSERNB#+4*GHSERZR#;  6000 N !
   PARAMETER G(LAVES_C36,NB:CR:ZR;0)   298.15   1734866.69+4*GHSERCR#
   +4*GHSERNB#+16*GHSERZR#;  6000 N !
 
$ Cr-Sn-Zr  

   PARAMETER G(LAVES_C36,ZR:SN:CR;0)    298.15   149604.19+16*GHSERCR#
   +4*GHSERSN#+4*GHSERZR#;  6000 N !
   PARAMETER G(LAVES_C36,CR:SN:ZR;0)    298.15   1307473.28+4*GHSERCR#
   +4*GHSERSN#+16*GHSERZR#;  6000 N !
   PARAMETER G(LAVES_C36,CR:ZR:SN;0)    298.15   1048332.03+4*GHSERCR#
   +16*GHSERSN#+4*GHSERZR#;  6000 N !
   PARAMETER G(LAVES_C36,ZR:CR:SN;0)    298.15   1030802.32+4*GHSERCR#
   +16*GHSERSN#+4*GHSERZR#;  6000 N !
   PARAMETER G(LAVES_C36,SN:ZR:CR;0)    298.15   148835.55+16*GHSERCR#
   +4*GHSERSN#+4*GHSERZR#;  6000 N !
   PARAMETER G(LAVES_C36,SN:CR:ZR;0)    298.15   889552.54+4*GHSERCR#
   +4*GHSERSN#+16*GHSERZR#;  6000 N !
   
$ Nb-Sn-Zr  
  
   PARAMETER G(LAVES_C36,NB:ZR:SN;0)    298.15   966213.36+4*GHSERNB#
   +16*GHSERSN#+4*GHSERZR#;  6000 N !
   PARAMETER G(LAVES_C36,NB:SN:ZR;0)    298.15   588534.84+4*GHSERNB#
   +4*GHSERSN#+16*GHSERZR#;  6000 N !
   PARAMETER G(LAVES_C36,ZR:NB:SN;0)    298.15   910145.81+4*GHSERNB#
   +16*GHSERSN#+4*GHSERZR#;  6000 N !
   PARAMETER G(LAVES_C36,SN:NB:ZR;0)    298.15   556700.2+4*GHSERNB#
   +4*GHSERSN#+16*GHSERZR#;  6000 N !
   PARAMETER G(LAVES_C36,ZR:SN:NB;0)    298.15   156838.26+16*GHSERNB#
   +4*GHSERSN#+4*GHSERZR#;  6000 N !
   PARAMETER G(LAVES_C36,SN:ZR:NB;0)    298.15   121336.21+16*GHSERNB#
   +4*GHSERSN#+4*GHSERZR#;  6000 N !


 PHASE A15  %  2 3   1 !
    CONSTITUENT A15  :NB,SN,ZR : NB,SN,ZR :  !
	
   PARAMETER G(A15,NB:NB;0)         298.15 +40513
   -1.0937822E+01*T+4*GHSERNB#; 
  6000 N!
   PARAMETER G(A15,SN:SN;0)         298.15 +30031
   +1.9454908E+01*T+4*GHSERSN#; 
  6000 N!
   PARAMETER G(A15,ZR:ZR;0)         298.15 8.35000000E+04+4*GHSERZR#; 
  6000 N!
   PARAMETER G(A15,NB:SN;0)         298.15 -67413.336+12.695285*T
   +3*GHSERNB#+GHSERSN#; 6000 N!
   PARAMETER G(A15,SN:NB;0)         298.15 +79925
   +5.00773548E+01*T+3*GHSERSN#
  +GHSERNB#; 6000 N!
   PARAMETER G(A15,SN:ZR;0)         298.15 +2.01296000E+05
   +3*GHSERSN#+GHSERZR#; 6000 N!
   PARAMETER G(A15,ZR:SN;0)         298.15 -1.42326281E+05
   -4.43634632*T+GHSERSN#+3*GHSERZR#; 6000 N!
   PARAMETER G(A15,NB:NB,SN;0)      298.15 +77437.483-40.567*T; 6000 N!
   PARAMETER G(A15,ZR:SN,ZR;0)      298.15 -1.39382692E+05; 6000 N!
   PARAMETER G(A15,NB,ZR:SN;0)      298.15  -125000; 6000 N   !
   PARAMETER G(A15,NB,ZR:SN;1)      298.15  -472000+15*T; 6000 N   !
   PARAMETER G(A15,NB,ZR:SN;2)      298.15  -410000; 6000 N   !
   
 PHASE NB6SN5  %  3 24   16   4 !
    CONSTITUENT NB6SN5  :NB : SN : SN :  !
 
     PARAMETER G(NB6SN5,NB:SN:SN;0)         298.15 -5.84500E+05
    +24.9325157*T+24*GHSERNB#+20*GHSERSN#; 6000 N !

 PHASE NBSN2  %  2 1   2 !
    CONSTITUENT NBSN2  :NB : SN :  !

   PARAMETER G(NBSN2,NB:SN;0)             298.15 -45536.552
   +11.070455*T+GHSERNB#+2*GHSERSN#; 6000 N!
   

 LIST_OF_REFERENCES
 NUMBER  SOURCE
  ! 