
$ Database file written 2013- 1-24
$ From database: User data 2013. 1.11    
 ELEMENT /-   ELECTRON_GAS              0.0000E+00  0.0000E+00  0.0000E+00!
 ELEMENT VA   VACUUM                    0.0000E+00  0.0000E+00  0.0000E+00!
 ELEMENT CO   HCP_A3                    5.8933E+01  4.7656E+03  3.0040E+01!
 ELEMENT FE   BCC_A2                    5.5847E+01  4.4890E+03  2.7280E+01!
 ELEMENT O    1/2_MOLE_O2(G)            1.5999E+01  4.3410E+03  1.0252E+02!
 
 SPECIES CO+2                        CO1/+2!
 SPECIES CO+3                        CO1/+3!
 SPECIES CO2                         CO2!
 SPECIES CO3O4                       CO3O4!
 SPECIES COO                         CO1O1!
 SPECIES FE+2                        FE1/+2!
 SPECIES FE+3                        FE1/+3!
 SPECIES FE+4                        FE1/+4!
 SPECIES FE1O2                       FE1O2!
 SPECIES FE2                         FE2!
 SPECIES FE2O3                       FE2O3!
 SPECIES FE3O4                       FE3O4!
 SPECIES FEO                         FE1O1!
 SPECIES O-2                         O1/-2!
 SPECIES O1                          O!
 SPECIES O2                          O2!
 SPECIES O2-2                        O2/-2!
 SPECIES O3                          O3!
 
 FUNCTION GHSERCO    2.98000E+02  +310.241+133.36601*T-25.0861*T*LN(T)
     -.002654739*T**2-1.7348E-07*T**3+72527*T**(-1);  1.76800E+03  Y
      -17197.666+253.28374*T-40.5*T*LN(T)+9.3488E+30*T**(-9);  6.00000E+03  
     N !
 FUNCTION GCOFCC     2.98150E+02  +427.59-.615248*T+GHSERCO#;   6.00000E+03  
      N !
 FUNCTION GCOBCC     2.98150E+02  +2938-.7138*T+GHSERCO#;   6.00000E+03   N !
 FUNCTION GCOLIQ     2.98150E+02  +15395.278+124.434078*T-25.0861*T*LN(T)
     -.002654739*T**2-1.7348E-07*T**3+72527*T**(-1)-2.19801E-21*T**7;  
     1.76800E+03  Y
      -846.61+243.599944*T-40.5*T*LN(T);  6.00000E+03  N !
 FUNCTION GHSERFE    2.98000E+02  +1225.7+124.134*T-23.5143*T*LN(T)
     -.00439752*T**2-5.89269E-08*T**3+77358.5*T**(-1);  1.81100E+03  Y
      -25383.581+299.31255*T-46*T*LN(T)+2.29603E+31*T**(-9);  6.00000E+03  N 
     !
 FUNCTION GFELIQ     2.98000E+02  +13265.87+117.5757*T-23.5143*T*LN(T)
     -.00439752*T**2-5.89269E-08*T**3+77358.5*T**(-1)-3.6751551E-21*T**7;  
     1.81100E+03  Y
      -10838.83+291.302*T-46*T*LN(T);  3.00000E+03  N !
 FUNCTION GFEFCC     2.98000E+02  +GHSERFE#-1462.4+8.282*T-1.15*T*LN(T)
     +6.4E-04*T**2;  1.81100E+03  Y
      -27097.266+300.25256*T-46*T*LN(T)+2.78854E+31*T**(-9);  3.00000E+03  N 
     !
 FUNCTION GFEHCP     2.98000E+02  -2480.08+136.725*T-24.6643*T*LN(T)
     -.00375752*T**2-5.8927E-08*T**3+77359*T**(-1);  1.81100E+03  Y
      -29340.776+304.561559*T-46*T*LN(T)+2.78854E+31*T**(-9);  6.00000E+03  
     N !
 FUNCTION GHSEROO    2.98150E+02  -3480.87-25.503038*T-11.136*T*LN(T)
     -.005098888*T**2+6.61846E-07*T**3-38365*T**(-1);  1.00000E+03  Y
      -6568.763+12.65988*T-16.8138*T*LN(T)-5.95798E-04*T**2+6.781E-09*T**3
     +262905*T**(-1);  3.30000E+03  Y
      -13986.728+31.259625*T-18.9536*T*LN(T)-4.25243E-04*T**2
     +1.0721E-08*T**3+4383200*T**(-1);  6.00000E+03  N !
 FUNCTION GFEO       2.98000E+02  -279318+252.848*T-46.12826*T*LN(T)
     -.0057402984*T**2;  3.00000E+03  N !
 FUNCTION GAFEO      2.98000E+02  -55384+27.888*T;  3.00000E+03  N !
 FUNCTION GFE2O3     2.98000E+02  -858683+827.946*T-137.0089*T*LN(T)
     +1453810*T**(-1);  3.00000E+03  N !
 FUNCTION BFE3O4     2.98000E+02  +46826-27.266*T;  3.00000E+03  N !
 FUNCTION CFE3O4     2.98000E+02  +120730-20.102*T;  3.00000E+03  N !
 FUNCTION GFE3O4     2.98000E+02  -161731+144.873*T-24.9879*T*LN(T)
     -.0011952256*T**2+206520*T**(-1);  3.00000E+03  N !
 FUNCTION GFEOLIQ    2.98000E+02  -137252+224.641*T-37.1815*T*LN(T);  
     3.00000E+03  N !
 FUNCTION GCOOS      2.98150E+02  -252530+270.075*T-47.825*T*LN(T)
     -.005112*T**2+225008*T**(-1);   6.00000E+03   N !
 FUNCTION NCO3O4     2.98150E+02  -969727+915.076*T-150.26*T*LN(T)
     -.004773*T**2+1358967*T**(-1);   6.00000E+03   N !
 FUNCTION ICO3O4     2.98150E+02  +NCO3O4#+95345-85.852*T;   6.00000E+03   N 
     !
 FUNCTION GCOOLIQ    2.98150E+02  +GCOOS#+42060-20*T;   6.00000E+03   N !
 FUNCTION FSPIN      2.98150E+02  -214607.7+138.83*T-23.28714*T*LN(T)
     -.001595929*T**2+227729.3*T**(-1);   6.00000E+03   N !
 FUNCTION TCOFE2O4   2.98150E+02  -1.13970076E+06+1.11050762E+03*T
 -1.8480426E+02*T*LN(T)-7.6396613E-03*T**2+1.5972451E+06*T**(-1);  
  6.00000E+03   N !
 FUNCTION ACOFE2O4   2.98150E+02  -2.44396563E+04+2.06104307E+01*T;
    6.00000E+03   N !
 FUNCTION F7261T     2.98150E+02  +416729.448-35.1568065*T-20.78*T*LN(T)
     -.0080941*T**2+1.95473333E-06*T**3+68440*T**(-1);  6.00000E+02  Y
      +415600.439-4.36923762*T-25.919*T*LN(T)-3.217E-04*T**2+1.228E-08*T**3
     +69800*T**(-1);  1.60000E+03  Y
      +404059.607+61.0546568*T-34.475*T*LN(T)+.00226985*T**2
     -1.11743333E-07*T**3+2845480*T**(-1);  5.30000E+03  Y
      +619409.166-455.074402*T+25.674*T*LN(T)-.00531515*T**2
     +7.04183333E-08*T**3-1.4391985E+08*T**(-1);  1.00000E+04  N !
 FUNCTION F7427T     2.98150E+02  +739344.569+228.270514*T-75.86201*T*LN(T)
     +.02653785*T**2-3.82613167E-06*T**3+589055*T**(-1);  9.00000E+02  Y
      +766271.805-69.2721005*T-32.277*T*LN(T)-.0051345*T**2+5.3545E-07*T**3
     -2559210*T**(-1);  2.50000E+03  Y
      +742734.91+122.487528*T-58.296*T*LN(T)+.0049326*T**2
     -1.22191667E-07*T**3-1487375*T**(-1);  5.80000E+03  Y
      +1148759.49-821.285063*T+51.18*T*LN(T)-.0082646*T**2
     +1.77621667E-07*T**3-2.8575475E+08*T**(-1);  6.00000E+03  N !
 FUNCTION F7356T     2.98150E+02  +275841.927+24.2052571*T-38.62*T*LN(T)
     +.0010486*T**2-5.3089E-07*T**3+44960*T**(-1);  1.00000E+03  Y
      +271341.103+44.8779144*T-41.009*T*LN(T)-1.055E-05*T**2
     -9.90866667E-08*T**3+1003100*T**(-1);  2.90000E+03  Y
      +390604.342-373.80702*T+10.233*T*LN(T)-.0095202*T**2
     +2.18581667E-07*T**3-49953335*T**(-1);  5.60000E+03  Y
      +339256.902-297.681941*T+2.109*T*LN(T)-.00931405*T**2
     +2.32998333E-07*T**3-1285140*T**(-1);  6.00000E+03  N !
 FUNCTION F13349T    2.98150E+02  +243206.494-20.8612582*T-21.01555*T*LN(T)
     +1.2687055E-04*T**2-1.23131283E-08*T**3-42897.09*T**(-1);  2.95000E+03  
     Y
      +252301.423-52.0847281*T-17.21188*T*LN(T)-5.413565E-04*T**2
     +7.64520667E-09*T**3-3973170.5*T**(-1);  6.00000E+03  N !
 FUNCTION F13704T    2.98150E+02  -6960.6927-51.1831467*T-22.25862*T*LN(T)
     -.01023867*T**2+1.339947E-06*T**3-76749.55*T**(-1);  9.00000E+02  Y
      -13136.0174+24.7432966*T-33.55726*T*LN(T)-.0012348985*T**2
     +1.66943333E-08*T**3+539886*T**(-1);  3.70000E+03  Y
      +14154.6459-51.485458*T-24.47978*T*LN(T)-.002634759*T**2
     +6.01544333E-08*T**3-15120935*T**(-1);  9.60000E+03  Y
      -314316.629+515.068037*T-87.56143*T*LN(T)+.0025787245*T**2
     -1.878765E-08*T**3+2.9052515E+08*T**(-1);  1.85000E+04  Y
      -108797.175+288.483019*T-63.737*T*LN(T)+.0014375*T**2-9E-09*T**3
     +.25153895*T**(-1);  2.00000E+04  N !
 FUNCTION F14021T    2.98150E+02  +130696.944-37.9096643*T-27.58118*T*LN(T)
     -.02763076*T**2+4.60539333E-06*T**3+99530.45*T**(-1);  7.00000E+02  Y
      +114760.623+176.626737*T-60.10286*T*LN(T)+.00206456*T**2
     -5.17486667E-07*T**3+1572175*T**(-1);  1.30000E+03  Y
      +49468.3956+710.09482*T-134.3696*T*LN(T)+.039707355*T**2
     -4.10457667E-06*T**3+12362250*T**(-1);  2.10000E+03  Y
      +866367.075-3566.80563*T+421.2001*T*LN(T)-.1284109*T**2
     +5.44768833E-06*T**3-2.1304835E+08*T**(-1);  2.80000E+03  Y
      +409416.383-1950.70834*T+223.4437*T*LN(T)-.0922361*T**2
     +4.306855E-06*T**3-21589870*T**(-1);  3.50000E+03  Y
      -1866338.6+6101.13383*T-764.8435*T*LN(T)+.09852775*T**2
     -2.59784667E-06*T**3+9.610855E+08*T**(-1);  4.90000E+03  Y
      +97590.043+890.798361*T-149.9608*T*LN(T)+.01283575*T**2
     -3.555105E-07*T**3-2.1699975E+08*T**(-1);  6.00000E+03  N !
 FUNCTION UN_ASS 298.15 0; 300 N !
 
 TYPE_DEFINITION % SEQ *!
 DEFINE_SYSTEM_DEFAULT ELEMENT 2 !
 DEFAULT_COMMAND DEF_SYS_ELEMENT VA /- !


 PHASE GAS:G %  1  1.0  !
    CONSTITUENT GAS:G :CO,CO2,COO,O,O2,O3 :  !

   PARAMETER G(GAS,CO;0)  2.98150E+02  +F7261T#+RTLNP#;   6.00000E+03   N 
  REF0 !
   PARAMETER G(GAS,CO2;0)  2.98150E+02  +F7427T#+RTLNP#;   6.00000E+03   N 
  REF0 !
   PARAMETER G(GAS,COO;0)  2.98150E+02  +F7356T#+RTLNP#;   6.00000E+03   N 
  REF0 !
   PARAMETER G(GAS,O;0)  2.98150E+02  +F13349T#+RTLNP#;   6.00000E+03   N 
  REF0 !
   PARAMETER G(GAS,O2;0)  2.98150E+02  +F13704T#+RTLNP#;   6.00000E+03   N 
  REF0 !
   PARAMETER G(GAS,O3;0)  2.98150E+02  +F14021T#+RTLNP#;   6.00000E+03   N 
  REF0 !


 PHASE IONIC_LIQUID:Y %  2 2   2.36031 !
    CONSTITUENT IONIC_LIQUID:Y :CO+2,CO+3,FE+2,FE+3 : O-2,VA :  !

   PARAMETER G(IONIC_LIQUID,CO+2:O-2;0)  2.98150E+02  +2*GCOOLIQ#;   
  6.00000E+03   N REF0 !
   PARAMETER G(IONIC_LIQUID,CO+3:O-2;0)  2.98150E+02  +2*GCOOS#+GHSEROO#
  -76314+103.63*T;   6.00000E+03   N REF0 !
   PARAMETER G(IONIC_LIQUID,FE+2:O-2;0)  2.98150E+02  +4*GFEOLIQ#;   
  6.00000E+03   N REF0 !
   PARAMETER G(IONIC_LIQUID,FE+3:O-2;0)  2.98150E+02  +5*GFEOLIQ#-179638
  +79.923*T;   6.00000E+03   N REF0 !
   PARAMETER G(IONIC_LIQUID,CO+2:VA;0)  2.98150E+02  +GCOLIQ#;  3.20000E+03  
  N REF0 !
   PARAMETER G(IONIC_LIQUID,CO+3:VA;0)  2.98150E+02  +2*GCOLIQ#+2*GCOOS#
  +GHSEROO#-76314+103.63*T-3*GCOOLIQ#;   6.00000E+03   N REF0 !
   PARAMETER G(IONIC_LIQUID,FE+2:VA;0)  2.98150E+02  +GFELIQ#;   6.00000E+03 
    N REF0 !
   PARAMETER G(IONIC_LIQUID,FE+3:VA;0)  2.98150E+02  +2*GFELIQ#+5*GFEOLIQ#
  -179638+79.923*T-6*GFEOLIQ#;   6.00000E+03   N REF0 !
   PARAMETER G(IONIC_LIQUID,CO+2:O-2,VA;0)  2.98150E+02  +182675-30.556*T;   
  6.00000E+03   N REF0 !
   PARAMETER G(IONIC_LIQUID,CO+2:O-2,VA;2)  2.98150E+02  +54226-20*T;   
  6.00000E+03   N REF0 !
   PARAMETER G(IONIC_LIQUID,FE+2,FE+3:O-2;0)  2.98150E+02  -26362;   
  6.00000E+03   N REF0 !
   PARAMETER G(IONIC_LIQUID,FE+2,FE+3:O-2;1)  2.98150E+02  13353;   
  6.00000E+03   N REF0 !
   PARAMETER G(IONIC_LIQUID,FE+2:O-2,VA;0)  2.98150E+02  +176681-16.368*T;   
  6.00000E+03   N REF0 !
   PARAMETER G(IONIC_LIQUID,FE+2:O-2,VA;1)  2.98150E+02  -65655+30.869*T;   
  6.00000E+03   N REF0 !
   PARAMETER G(IONIC_LIQUID,CO+2,FE+2:VA;0)  2.98150E+02  -9753.82;   
  6.00000E+03   N REF0 !
   PARAMETER G(IONIC_LIQUID,CO+2,FE+2:VA;2)  2.98150E+02  2757.96;   
  6.00000E+03   N REF0 !


 TYPE_DEFINITION & GES A_P_D BCC_A2 MAGNETIC  -1.0    4.00000E-01 !
 PHASE BCC_A2  %&  2 1   3 !
    CONSTITUENT BCC_A2  :CO,FE : O,VA :  !

   PARAMETER G(BCC_A2,CO:O;0)  2.98150E+02  +GCOBCC#+3*GHSEROO#;   
  6.00000E+03   N REF0 !
   PARAMETER G(BCC_A2,FE:O;0)  2.98150E+02  +GHSERFE#+3*GHSEROO#+195*T;   
  6.00000E+03   N REF0 !
   PARAMETER TC(BCC_A2,CO:VA;0)  2.98150E+02  1450;   6.00000E+03   N REF0 !
   PARAMETER BMAGN(BCC_A2,CO:VA;0)  2.98150E+02  1.35;   6.00000E+03   N 
  REF0 !
   PARAMETER G(BCC_A2,CO:VA;0)  2.98150E+02  +GCOBCC#;   6.00000E+03   N 
  REF0 !
   PARAMETER G(BCC_A2,FE:VA;0)  2.98150E+02  +GHSERFE#;   6.00000E+03   N 
  REF0 !
   PARAMETER TC(BCC_A2,FE:VA;0)  2.98150E+02  1043;   6.00000E+03   N REF0 !
   PARAMETER BMAGN(BCC_A2,FE:VA;0)  2.98150E+02  2.22;   6.00000E+03   N 
  REF0 !
   PARAMETER G(BCC_A2,FE:O,VA;0)  2.98150E+02  -517549+71.83*T;   
  6.00000E+03   N REF0 !
   PARAMETER G(BCC_A2,CO,FE:VA;0)  2.98150E+02  -26222.7+125*T
  -15.502*T*LN(T)-632250*T**(-1);   6.00000E+03   N REF0 !
   PARAMETER G(BCC_A2,CO,FE:VA;2)  2.98150E+02  +2686.79+632250*T**(-1);   
  6.00000E+03   N REF0 !
   PARAMETER TC(BCC_A2,CO,FE:VA;0)  2.98150E+02  590;   6.00000E+03   N REF0 !
   PARAMETER BMAGN(BCC_A2,CO,FE:VA;0)  2.98150E+02  1.406;   6.00000E+03   N 
  REF0 !
   PARAMETER BMAGN(BCC_A2,CO,FE:VA;1)  2.98150E+02  -.6617;   6.00000E+03   
  N REF0 !


 TYPE_DEFINITION ' GES A_P_D C2F3O4 MAGNETIC  -3.0    2.80000E-01 !
 PHASE C2F3O4  %'  3 1   2   4 !
    CONSTITUENT C2F3O4  :CO+2 : FE+3 : O-2 :  !

   PARAMETER G(C2F3O4,CO+2:FE+3:O-2;0)  2.98150E+02  +TCOFE2O4#;   
  6.00000E+03   N REF0 !
   PARAMETER TC(C2F3O4,CO+2:FE+3:O-2;0)  2.98000E+02  7.7515418E+02; 
    3.00000E+03  N   REF0 !
   PARAMETER BMAGN(C2F3O4,CO+2:FE+3:O-2;0)  2.98000E+02  -2.3001548E+01; 
    3.00000E+03    N REF0 !


 TYPE_DEFINITION ( GES A_P_D CORUNDUM MAGNETIC  -3.0    2.80000E-01 !
 PHASE CORUNDUM  %(  3 2   1   3 !
    CONSTITUENT CORUNDUM  :FE+2,FE+3 : FE+3,VA : O-2 :  !

   PARAMETER G(CORUNDUM,FE+2:FE+3:O-2;0)  2.98150E+02  +GFE2O3#+85000;   
  6.00000E+03   N REF0 !
   PARAMETER TC(CORUNDUM,FE+2:FE+3:O-2;0)  2.98150E+02  -2867;   6.00000E+03 
    N REF0 !
   PARAMETER BMAGN(CORUNDUM,FE+2:FE+3:O-2;0)  2.98150E+02  -25.1;   
  6.00000E+03   N REF0 !
   PARAMETER G(CORUNDUM,FE+3:FE+3:O-2;0)  2.98150E+02  +GFE2O3#+85000;   
  6.00000E+03   N REF0 !
   PARAMETER TC(CORUNDUM,FE+3:FE+3:O-2;0)  2.98150E+02  -2867;   6.00000E+03 
    N REF0 !
   PARAMETER BMAGN(CORUNDUM,FE+3:FE+3:O-2;0)  2.98150E+02  -25.1;   
  6.00000E+03   N REF0 !
   PARAMETER G(CORUNDUM,FE+2:VA:O-2;0)  2.98150E+02  +GFE2O3#;   6.00000E+03 
    N REF0 !
   PARAMETER TC(CORUNDUM,FE+2:VA:O-2;0)  2.98150E+02  -2867;   6.00000E+03   
  N REF0 !
   PARAMETER BMAGN(CORUNDUM,FE+2:VA:O-2;0)  2.98150E+02  -25.1;   
  6.00000E+03   N REF0 !
   PARAMETER G(CORUNDUM,FE+3:VA:O-2;0)  2.98150E+02  +GFE2O3#;   6.00000E+03 
    N REF0 !
   PARAMETER TC(CORUNDUM,FE+3:VA:O-2;0)  2.98150E+02  -2867;   6.00000E+03   
  N REF0 !
   PARAMETER BMAGN(CORUNDUM,FE+3:VA:O-2;0)  2.98150E+02  -25.1;   
  6.00000E+03   N REF0 !


 TYPE_DEFINITION ) GES A_P_D F3C2F3 MAGNETIC  -3.0    2.80000E-01 !
 PHASE F3C2F3  %)  3 1   2   4 !
    CONSTITUENT F3C2F3  :FE+3 : CO+2,FE+3 : O-2 :  !

   PARAMETER G(F3C2F3,FE+3:CO+2:O-2;0)  2.98150E+02  +2*TCOFE2O4#-7*GFE3O4#
  +BFE3O4#+2*ACOFE2O4#+23.05272*T;   6.00000E+03   N REF0 !
   PARAMETER TC(F3C2F3,FE+3:CO+2:O-2;0)  2.98000E+02  7.7515418E+02; 
    3.00000E+03  N   REF0 !
   PARAMETER BMAGN(F3C2F3,FE+3:CO+2:O-2;0)  2.98000E+02  -2.3001548E+01; 
    3.00000E+03    N REF0 !
   PARAMETER G(F3C2F3,FE+3:FE+3:O-2;0)  2.98150E+02  +7*GFE3O4#-BFE3O4#;   
  6.00000E+03   N REF0 !
   PARAMETER TC(F3C2F3,FE+3:FE+3:O-2;0)  2.98000E+02  848;  3.00000E+03  N 
  REF0 !
   PARAMETER BMAGN(F3C2F3,FE+3:FE+3:O-2;0)  2.98000E+02  44.54;  3.00000E+03 
   N REF0 !
   PARAMETER G(F3C2F3,FE+3:CO+2,FE+3:O-2;0)  2.98150E+02  -5.1951177E+04
   +2.0714445E+01*T;     6.00000E+03   N REF0 !


 TYPE_DEFINITION * GES A_P_D FCC_A1 MAGNETIC  -3.0    2.80000E-01 !
 PHASE FCC_A1  %*  2 1   1 !
    CONSTITUENT FCC_A1  :CO,FE : O,VA :  !

   PARAMETER G(FCC_A1,CO:O;0)  2.98150E+02  +GCOFCC#+GHSEROO#-213318
  +107.071*T;   6.00000E+03   N REF0 !
   PARAMETER G(FCC_A1,FE:O;0)  2.98150E+02  +GFEFCC#+GHSEROO#+65*T;   
  6.00000E+03   N REF0 !
   PARAMETER TC(FCC_A1,CO:VA;0)  2.98150E+02  1396;  1.76800E+03  N REF0 !
   PARAMETER BMAGN(FCC_A1,CO:VA;0)  2.98150E+02  1.35;  1.76800E+03  N REF0 !
   PARAMETER G(FCC_A1,CO:VA;0)  2.98150E+02  +GCOFCC#;  3.20000E+03  N REF0 !
   PARAMETER G(FCC_A1,FE:VA;0)  2.98150E+02  +GFEFCC#;   6.00000E+03   N 
  REF0 !
   PARAMETER TC(FCC_A1,FE:VA;0)  2.98150E+02  -201;   6.00000E+03   N REF0 !
   PARAMETER BMAGN(FCC_A1,FE:VA;0)  2.98150E+02  -2.1;   6.00000E+03   N 
  REF0 !
   PARAMETER G(FCC_A1,FE:O,VA;0)  2.98150E+02  +168758+19.17*T;   
  6.00000E+03   N REF0 !
   PARAMETER G(FCC_A1,CO,FE:VA;0)  2.98150E+02  -8968.75;   6.00000E+03   N 
  REF0 !
   PARAMETER G(FCC_A1,CO,FE:VA;2)  2.98150E+02  3528.8;   6.00000E+03   N 
  REF0 !
   PARAMETER TC(FCC_A1,CO,FE:VA;0)  2.98150E+02  283;   6.00000E+03   N REF0 !
   PARAMETER TC(FCC_A1,CO,FE:VA;1)  2.98150E+02  879;   6.00000E+03   N REF0 !
   PARAMETER BMAGN(FCC_A1,CO,FE:VA;0)  2.98150E+02  8.407;   6.00000E+03   N 
  REF0 !
   PARAMETER BMAGN(FCC_A1,CO,FE:VA;1)  2.98150E+02  -3.644;   6.00000E+03   
  N REF0 !


 TYPE_DEFINITION + GES A_P_D FE2O3 MAGNETIC  -3.0    2.80000E-01 !
 PHASE FE2O3  %+  2 2   3 !
    CONSTITUENT FE2O3  :FE+3 : O-2 :  !

   PARAMETER G(FE2O3,FE+3:O-2;0)  2.98150E+02  +GFE2O3#;   6.00000E+03   N 
  REF0 !
   PARAMETER TC(FE2O3,FE+3:O-2;0)  2.98150E+02  -2867;   6.00000E+03   N 
  REF0 !
   PARAMETER BMAGN(FE2O3,FE+3:O-2;0)  2.98150E+02  -25.1;   6.00000E+03   N 
  REF0 !


 TYPE_DEFINITION - GES A_P_D HALITE MAGNETIC  -3.0    2.80000E-01 !
 PHASE HALITE  %-  2 1   1 !
    CONSTITUENT HALITE  :CO+2,FE+2,FE+3,VA : O-2 :  !

   PARAMETER TC(HALITE,CO+2:O-2;0)  2.98150E+02  -870;  2.00000E+03  N REF0 !
   PARAMETER BMAGN(HALITE,CO+2:O-2;0)  2.98150E+02  2;  2.00000E+03  N REF0 !
   PARAMETER G(HALITE,CO+2:O-2;0)  2.98150E+02  +GCOOS#;   6.00000E+03   N 
  REF0 !
   PARAMETER G(HALITE,FE+2:O-2;0)  2.98150E+02  +GFEO#;   6.00000E+03   N 
  REF0 !
   PARAMETER G(HALITE,FE+3:O-2;0)  2.98150E+02  +1.25*GFEO#+1.25*GAFEO#;   
  6.00000E+03   N REF0 !
       PARA G(HALITE,VA:O-2;0) 298.15 0; 6000 N!
   PARAMETER G(HALITE,CO+2,FE+2:O-2;0)  2.98000E+02  3.4413729E+03;  
  3.00000E+03  N REF0 !
   PARAMETER G(HALITE,CO+2,FE+3:O-2;0)  2.98000E+02  -3.7665123E+03
   +9.8676444*T;    3.00000E+03  N REF0 !
   PARAMETER G(HALITE,FE+2,FE+3:O-2;0)  2.98000E+02  -12324;  3.00000E+03  N 
  REF0 !
   PARAMETER G(HALITE,FE+2,FE+3:O-2;1)  2.98000E+02  20070;  3.00000E+03  N 
  REF0 !


 TYPE_DEFINITION . GES A_P_D HCP_A3 MAGNETIC  -3.0    2.80000E-01 !
 PHASE HCP_A3  %.  2 1   .5 !
    CONSTITUENT HCP_A3  :CO,FE : O,VA :  !

   PARAMETER G(HCP_A3,CO:O;0)  2.98150E+02  +GHSERCO#+.5*GHSEROO#-122309
  +66.269*T;   6.00000E+03   N REF0 !
   PARAMETER G(HCP_A3,FE:O;0)  2.98150E+02  +GFEHCP#+.5*GHSEROO#;   
  6.00000E+03   N REF0 !
   PARAMETER TC(HCP_A3,CO:VA;0)  2.98150E+02  1396;  1.76800E+03  N REF0 !
   PARAMETER BMAGN(HCP_A3,CO:VA;0)  2.98150E+02  1.35;  1.76800E+03  N REF0 !
   PARAMETER G(HCP_A3,CO:VA;0)  2.98150E+02  +GHSERCO#;  3.20000E+03  N REF0 !
   PARAMETER G(HCP_A3,FE:VA;0)  2.98150E+02  +GFEHCP#;  3.20000E+03  N REF0 !
   PARAMETER G(HCP_A3,CO,FE:VA;0)  2.98150E+02  5000;  3.20000E+03  N REF0 !
   PARAMETER TC(HCP_A3,CO,FE:VA;0)  2.98150E+02  -253;  3.20000E+03  N REF0 !
   PARAMETER TC(HCP_A3,CO,FE:VA;1)  2.98150E+02  1494;  3.20000E+03  N REF0 !
   PARAMETER BMAGN(HCP_A3,CO,FE:VA;0)  2.98150E+02  5.41;  3.20000E+03  N 
  REF0 !
   PARAMETER BMAGN(HCP_A3,CO,FE:VA;1)  2.98150E+02  -.24;  3.20000E+03  N 
  REF0 !


 PHASE O2GAS  %  1  1.0  !
    CONSTITUENT O2GAS  :O2 :  !

   PARAMETER G(O2GAS,O2;0)  2.98150E+02  +2*GHSEROO#+RTLNP#;   6.00000E+03   
  N REF0 !


 TYPE_DEFINITION / GES A_P_D SPINEL MAGNETIC  -3.0    2.80000E-01 !
 PHASE SPINEL  %/  3 1   2   4 !
    CONSTITUENT SPINEL  :CO+2,CO+3,FE+2,FE+3 : CO+2,CO+3,FE+2,FE+3,VA : O-2 
    :  !

   PARAMETER G(SPINEL,CO+2:CO+2:O-2;0)  2.98150E+02  +3*TCOFE2O4#-14*GFE3O4#
  +2*BFE3O4#+2*ACOFE2O4#+23.05272*T;   6.00000E+03   N REF0 !
   PARAMETER G(SPINEL,CO+3:CO+2:O-2;0)  2.98150E+02  +ICO3O4#+23.05272*T
  -.5*NCO3O4#+1.5*TCOFE2O4#+ACOFE2O4#-7*GFE3O4#+BFE3O4#;   
  6.00000E+03   N REF0 !
   PARAMETER G(SPINEL,FE+2:CO+2:O-2;0)  2.98150E+02  +2*TCOFE2O4#-7*GFE3O4#
  +2*BFE3O4#+2*ACOFE2O4#+23.05272*T;   6.00000E+03   N REF0 !
   PARAMETER G(SPINEL,FE+3:CO+2:O-2;0)  2.98150E+02  +2*TCOFE2O4#-7*GFE3O4#
  +BFE3O4#+2*ACOFE2O4#+23.05272*T;   6.00000E+03   N REF0 !
   PARAMETER TC(SPINEL,FE+3:CO+2:O-2;0)  2.98000E+02  7.7515418E+02; 
    3.00000E+03  N   REF0 !
   PARAMETER BMAGN(SPINEL,FE+3:CO+2:O-2;0)  2.98000E+02  -2.3001548E+01; 
    3.00000E+03    N REF0 !
   PARAMETER G(SPINEL,CO+2:CO+3:O-2;0)  2.98150E+02  +NCO3O4#;   6.00000E+03 
    N REF0 !
   PARAMETER G(SPINEL,CO+3:CO+3:O-2;0)  2.98150E+02  +ICO3O4#+.5*NCO3O4#
  -1.5*TCOFE2O4#-ACOFE2O4#+7*GFE3O4#-BFE3O4#;   6.00000E+03   N 
  REF0 !
   PARAMETER G(SPINEL,FE+2:CO+3:O-2;0)  2.98150E+02  +7*GFE3O4#-TCOFE2O4#
  +NCO3O4#;   6.00000E+03   N REF0 !
   PARAMETER G(SPINEL,FE+3:CO+3:O-2;0)  2.98150E+02  +7*GFE3O4#-BFE3O4#
  -TCOFE2O4#+NCO3O4#;   6.00000E+03   N REF0 !
   PARAMETER G(SPINEL,CO+2:FE+2:O-2;0)  2.98150E+02  +TCOFE2O4#+BFE3O4#;   
  6.00000E+03   N REF0 !
   PARAMETER G(SPINEL,CO+3:FE+2:O-2;0)  2.98150E+02  +7*GFE3O4#-.5*NCO3O4#
  -.5*TCOFE2O4#-ACOFE2O4#+ICO3O4#;   6.00000E+03   N REF0 !
   PARAMETER G(SPINEL,FE+2:FE+2:O-2;0)  2.98150E+02  +7*GFE3O4#+BFE3O4#;   
  6.00000E+03   N REF0 !
   PARAMETER TC(SPINEL,FE+2:FE+2:O-2;0)  2.98000E+02  848;  3.00000E+03  N 
  REF0 !
   PARAMETER BMAGN(SPINEL,FE+2:FE+2:O-2;0)  2.98000E+02  44.54;  3.00000E+03 
   N REF0 !
   PARAMETER G(SPINEL,FE+3:FE+2:O-2;0)  2.98150E+02  +7*GFE3O4#;   
  6.00000E+03   N REF0 !
   PARAMETER TC(SPINEL,FE+3:FE+2:O-2;0)  2.98000E+02  848;  3.00000E+03  N 
  REF0 !
   PARAMETER BMAGN(SPINEL,FE+3:FE+2:O-2;0)  2.98000E+02  44.54;  3.00000E+03 
   N REF0 !
   PARAMETER G(SPINEL,CO+2:FE+3:O-2;0)  2.98150E+02  +TCOFE2O4#;   
  6.00000E+03   N REF0 !
   PARAMETER TC(SPINEL,CO+2:FE+3:O-2;0)  2.98000E+02  7.7515418E+02;  
   3.00000E+03  N   REF0 !
   PARAMETER BMAGN(SPINEL,CO+2:FE+3:O-2;0)  2.98000E+02  -2.3001548E+01; 
    3.00000E+03    N REF0 !
   PARAMETER G(SPINEL,CO+3:FE+3:O-2;0)  2.98150E+02  +7*GFE3O4#-.5*NCO3O4#
  -.5*TCOFE2O4#-ACOFE2O4#+ICO3O4#-BFE3O4#;   
  6.00000E+03   N REF0 !
   PARAMETER G(SPINEL,FE+2:FE+3:O-2;0)  2.98150E+02  +7*GFE3O4#;   
  6.00000E+03   N REF0 !
   PARAMETER TC(SPINEL,FE+2:FE+3:O-2;0)  2.98000E+02  848;  3.00000E+03  N 
  REF0 !
   PARAMETER BMAGN(SPINEL,FE+2:FE+3:O-2;0)  2.98000E+02  44.54;  3.00000E+03 
   N REF0 !
   PARAMETER G(SPINEL,FE+3:FE+3:O-2;0)  2.98150E+02  +7*GFE3O4#-BFE3O4#;   
  6.00000E+03   N REF0 !
   PARAMETER TC(SPINEL,FE+3:FE+3:O-2;0)  2.98000E+02  848;  3.00000E+03  N 
  REF0 !
   PARAMETER BMAGN(SPINEL,FE+3:FE+3:O-2;0)  2.98000E+02  44.54;  3.00000E+03 
   N REF0 !
   PARAMETER G(SPINEL,CO+2:VA:O-2;0)  2.98150E+02  +TCOFE2O4#+CFE3O4#
  -2*GFE3O4#;   6.00000E+03   N REF0 !
   PARAMETER G(SPINEL,CO+3:VA:O-2;0)  2.98150E+02  -.5*TCOFE2O4#-.5*NCO3O4#
  +ICO3O4#-ACOFE2O4#+CFE3O4#+5*GFE3O4#-BFE3O4#;   
  6.00000E+03   N REF0 !
   PARAMETER G(SPINEL,FE+2:VA:O-2;0)  2.98150E+02  +5*GFE3O4#+CFE3O4#;   
  6.00000E+03   N REF0 !
   PARAMETER TC(SPINEL,FE+2:VA:O-2;0)  2.98000E+02  848;  3.00000E+03  N 
  REF0 !
   PARAMETER BMAGN(SPINEL,FE+2:VA:O-2;0)  2.98000E+02  44.54;  3.00000E+03  
  N REF0 !
   PARAMETER G(SPINEL,FE+3:VA:O-2;0)  2.98150E+02  +5*GFE3O4#+CFE3O4#
  -BFE3O4#;   6.00000E+03   N REF0 !
   PARAMETER TC(SPINEL,FE+3:VA:O-2;0)  2.98000E+02  848;  3.00000E+03  N 
  REF0 !
   PARAMETER BMAGN(SPINEL,FE+3:VA:O-2;0)  2.98000E+02  44.54;  3.00000E+03  
  N REF0 !
   PARAMETER G(SPINEL,CO+2,CO+3:CO+2:O-2;0)  2.98150E+02  -30847+44.249*T;   
  6.00000E+03   N REF0 !
   PARAMETER G(SPINEL,FE+2:CO+2,CO+3:O-2;0)  2.98150E+02  2.05608047E+05;   
  6.00000E+03   N REF0 !
   PARAMETER G(SPINEL,FE+3:CO+2,CO+3:O-2;0)  2.98150E+02  2.05608047E+05;   
  6.00000E+03   N REF0 !
   PARAMETER G(SPINEL,FE+3:CO+2,FE+3:O-2;0)  2.98150E+02  -5.32732581E+04
   +2.17533252E+01*T;     6.00000E+03   N REF0 !
   PARAMETER G(SPINEL,CO+2,CO+3:CO+3:O-2;0)  2.98150E+02  -30847+44.249*T;   
  6.00000E+03   N REF0 !
   PARAMETER G(SPINEL,CO+2:CO+3,FE+3:O-2;0)  2.98150E+02  5.64282933E+04
   -8.91704342E+00*T;        6.00000E+03   N REF0 !
   PARAMETER G(SPINEL,FE+3:CO+3,FE+3:O-2;0)  2.98150E+02  -7.25042514E+04
   -5.87810896E+00*T;     6.00000E+03   N REF0 !


 TYPE_DEFINITION 0 GES A_P_D ST_COO MAGNETIC  -3.0    2.80000E-01 !
 PHASE ST_COO  %0  2 1   1 !
    CONSTITUENT ST_COO  :CO+2 : O-2 :  !

   PARAMETER TC(ST_COO,CO+2:O-2;0)  2.98150E+02  -870;  2.00000E+03  N REF0 !
   PARAMETER BMAGN(ST_COO,CO+2:O-2;0)  2.98150E+02  2;  2.00000E+03  N REF0 !
   PARAMETER G(ST_COO,CO+2:O-2;0)  2.98150E+02  +GCOOS#;   6.00000E+03   N 
  REF0 !

 LIST_OF_REFERENCES
 NUMBER  SOURCE
  ! 
 
