                 
 ELEMENT /-   ELECTRON_GAS              0.0000E+00  0.0000E+00  0.0000E+00!
 ELEMENT VA   VACUUM                    0.0000E+00  0.0000E+00  0.0000E+00!
 ELEMENT CR   BCC_A2                    5.1996E+01  4.0500E+03  2.3560E+01!
 ELEMENT SI   DIAMOND_A4                2.8085E+01  3.2175E+03  1.8820E+01!
 ELEMENT V    BCC_A2                    5.0941E+01  4.5070E+03  3.0890E+01!
 


 FUNCTION GHSERCR    2.98150E+02  -8856.94+157.48*T-26.908*T*LN(T)
     +.00189435*T**2-1.47721E-06*T**3+139250*T**(-1);  2.18000E+03  Y
      -34869.344+344.18*T-50*T*LN(T)-2.88526E+32*T**(-9);  6.00000E+03  N !

 FUNCTION GPCRBCC 298.14 0.0; 6000 N !

 FUNCTION GPCRLIQ 298.14 0.0; 6000 N !

 FUNCTION GCRFCC 298.14 +7284+.163*T+GHSERCR#; 6000 N !

 FUNCTION GHSERSI    2.98150E+02  -8162.609+137.236859*T-22.8317533*T*LN(T)
     -.001912904*T**2-3.552E-09*T**3+176667*T**(-1);  1.68700E+03  Y
      -9457.642+167.281367*T-27.196*T*LN(T)-4.20369E+30*T**(-9);  
     3.60000E+03  N !

 FUNCTION GSIBCC 298.14 +47000-22.5*T+GHSERSI#; 6000 N !

 FUNCTION GHSERVV    2.98150E+02  -7930.43+133.346053*T-24.134*T*LN(T)
     -.003098*T**2+1.2175E-07*T**3+69460*T**(-1);  7.90000E+02  Y
      -7967.842+143.291093*T-25.9*T*LN(T)+6.25E-05*T**2-6.8E-07*T**3;  
     2.18300E+03  Y
      -41689.864+321.140783*T-47.43*T*LN(T)+6.44389E+31*T**(-9);  
     4.00000E+03  N !

FUNCTION GLIQV      2.98150E+02  +12833.687+123.890501*T-24.134*T*LN(T)
     -.003098*T**2+1.2175E-07*T**3+69460*T**(-1)-5.19136E-22*T**7;  
     7.90000E+02  Y
      +12796.275+133.835541*T-25.9*T*LN(T)+6.25E-05*T**2-6.8E-07*T**3
     -5.19136E-22*T**7;  2.18300E+03  Y
      -19617.51+311.055983*T-47.43*T*LN(T);  4.00000E+03  N !

FUNCTION GVSI2  2.98150E+02  -54102.8+136.09732*T
    -22.6*T*LN(T)-.0025*T**2+110000*T**(-1);  6.00000E+03  N !

FUNCTION GV3SI11  2.98150E+02  +54274.8-6.47189*T
    +0.25*GHSERVV#+0.75*GHSERSI#;  6.00000E+03  N !

FUNCTION GV3SI12  2.98150E+02  -44274.8+6.47189*T
    +0.75*GHSERVV#+0.25*GHSERSI#;  6.00000E+03  N !

FUNCTION GV5SI3  2.98150E+02  -55417.1+6.67549*T
    +.625*GHSERVV#+.375*GHSERSI#;  6.00000E+03  N !

FUNCTION UN_ASS 298.15 0; 300 N !
 

 TYPE_DEFINITION % SEQ *!
 DEFINE_SYSTEM_DEFAULT ELEMENT 2 !
 DEFAULT_COMMAND DEF_SYS_ELEMENT VA /- !l-a


 PHASE LIQUID  %  1  1.0  !
   CONSTITUENT LIQUID  :CR,SI,V :  !
   PARAMETER G(LIQUID,CR;0)  2.98150E+02  +15483.015+146.059775*T
    -26.908*T*LN(T)+.00189435*T**2-1.47721E-06*T**3+139250*T**(-1)
    +2.37615E-21*T**7;  2.18000E+03  Y
   -16459.984+335.616316*T-50*T*LN(T);  6.00000E+03  N REF1 !
   PARAMETER G(LIQUID,SI;0)  2.98150E+02  +42533.751+107.13742*T
    -22.8317533*T*LN(T)-.001912904*T**2-3.552E-09*T**3+176667*T**(-1)
    +2.09307E-21*T**7;  1.68700E+03  Y
    +40370.523+137.722298*T-27.196*T*LN(T);  3.60000E+03  N REF1 !
   PARAMETER G(LIQUID,V;0)  2.98150E+02  +12833.687+123.890501*T
    -24.134*T*LN(T)-.003098*T**2+1.2175E-07*T**3+69460*T**(-1)
    -5.19136E-22*T**7;  7.90000E+02  Y
    +12796.275+133.835541*T-25.9*T*LN(T)+6.25E-05*T**2-6.8E-07*T**3
    -5.19136E-22*T**7;  2.18300E+03  Y
    -19617.51+311.055983*T-47.43*T*LN(T);  4.00000E+03  N REF1 !
   PARAMETER L(LIQUID,CR,SI;0) 298.14 -119216.9+16.11445*T; 6000 N REF:6 !
   PARAMETER L(LIQUID,CR,SI;1) 298.14 -47614.7+12.17363*T; 6000 N REF:6 !
   PARAMETER L(LIQUID,CR,V;0)  2.98150E+02  -20224.86; 
    6.00000E+03  N REF3 !
   PARAMETER L(LIQUID,CR,V;1)  2.98150E+02  -13469.9; 
    6.00000E+03  N REF3 !
   PARAMETER L(LIQUID,SI,V;0)  2.98150E+02  -190326.8+44.06262*T; 
    6.00000E+03  N REF2 !
   PARAMETER L(LIQUID,SI,V;1)  2.98150E+02  +6265.4; 
    6.00000E+03  N REF2 !
   PARAMETER L(LIQUID,SI,V;2)  2.98150E+02  +39546.5; 
    6.00000E+03  N REF2 !
   PARAMETER L(LIQUID,CR,SI,V;0) 298.14 +0.0; 6000 N REF:6 !
   PARAMETER L(LIQUID,CR,SI,V;1) 298.14 +1.62696E+05; 6000 N REF:6 !
   PARAMETER L(LIQUID,CR,SI,V;2) 298.14 +0.0; 6000 N REF:6 !


 PHASE BCC_A2  %&  2 1   3 !
   TYPE_DEFINITION & GES A_P_D BCC_A2 MAGNETIC  -1.0    4.00000E-01 !
   CONSTITUENT BCC_A2  :CR,SI,V : VA :  !
   PARAMETER G(BCC_A2,CR:VA;0)  2.98150E+02  +GHSERCR#;   6.00000E+03   N 
    REF1 !
   PARAMETER TC(BCC_A2,CR:VA;0)  2.98150E+02  -311.5;
    6.00000E+03   N REF1 !
   PARAMETER BMAGN(BCC_A2,CR:VA;0)  2.98150E+02  -.008;   6.00000E+03   N 
    REF1 !
   PARAMETER G(BCC_A2,SI:VA;0)  2.98150E+02  +38837.391+114.736859*T
    -22.8317533*T*LN(T)-.001912904*T**2-3.552E-09*T**3+176667*T**(-1);  
    1.68700E+03  Y
    +37542.358+144.781367*T-27.196*T*LN(T)-4.20369E+30*T**(-9);
    3.60000E+03  N REF1 !
  PARAMETER L(BCC_A2,CR,SI:VA;0) 298.14 -104537.94+10.69527*T;
   6000 N REF:6 !
  PARAMETER L(BCC_A2,CR,SI:VA;1) 298.14 -47614.7+12.17363*T;
   6000 N REF:6 !
   PARAMETER L(BCC_A2,CR,V:VA;0) 298.14 -8253.85-3.61592*T;
    6000 N REF3 !
   PARAMETER L(BCC_A2,CR,V:VA;1) 298.14 +7494.82-8.69424*T;
    6000 N REF3 !  
   PARAMETER L(BCC_A2,CR,V:VA;2) 298.14 -17599.07+10.13142*T;
    6000 N REF3 !  
   PARAMETER L(BCC_A2,CR,V:VA;3) 298.14 +1042.58;
    6000 N REF3 !  
   PARAMETER G(BCC_A2,V:VA;0)  2.98150E+02  +GHSERVV#;
    4.00000E+03  N REF1 !
   PARAMETER L(BCC_A2,SI,V:VA;0)  2.98150E+02  -205373.1+61.02211*T; 
    6.00000E+03  N REF2 !


PHASE DIAMOND_FCC_A4 %  1  1.0  !
  CONSTITUENT DIAMOND_FCC_A4 : SI : !
  PARAMETER G(DIAMOND_FCC_A4,SI;0) 298.14 +GHSERSI#; 3600 N REF:0 !
 
   
 PHASE HCP_A3  %)  2 1   .5 !
   TYPE_DEFINITION ) GES A_P_D HCP_A3 MAGNETIC  -3.0    2.80000E-01 !
   CONSTITUENT HCP_A3  :CR,SI,V : VA :  !
   PARAMETER G(HCP_A3,CR:VA;0)  2.98150E+02  -4418.94+157.48*T
    -26.908*T*LN(T)+.00189435*T**2-1.47721E-06*T**3+139250*T**(-1);  
    2.18000E+03  Y
    -30431.344+344.18*T-50*T*LN(T)-2.88526E+32*T**(-9);
    6.00000E+03  N REF1 !
   PARAMETER TC(HCP_A3,CR:VA;0)  2.98150E+02  -1109; 
    6.00000E+03   N REF1 !
   PARAMETER BMAGN(HCP_A3,CR:VA;0)  2.98150E+02  -2.46;
    6.00000E+03   N REF1 !
   PARAMETER G(HCP_A3,SI:VA;0)  2.98150E+02  +41037.391+116.436859*T
    -22.8317533*T*LN(T)-.001912904*T**2-3.552E-09*T**3+176667*T**(-1);  
    1.68700E+03  Y
    +39742.358+146.481367*T-27.196*T*LN(T)-4.20369E+30*T**(-9);
    3.60000E+03  N REF1 !
   PARAMETER G(HCP_A3,V:VA;0)  2.98150E+02  -3930.43+135.746053*T
    -24.134*T*LN(T)-.003098*T**2+1.2175E-07*T**3+69460*T**(-1);
    7.90000E+02  Y
    -3967.842+145.691093*T-25.9*T*LN(T)+6.25E-05*T**2-6.8E-07*T**3;  
    2.18300E+03  Y
    -37689.864+323.540783*T-47.43*T*LN(T)+6.44389E+31*T**(-9);
    4.00000E+03  N REF1 !
   PARAMETER L(HCP_A3,CR,V:VA;0)  2.98150E+02  +5000; 
    6.00000E+03  N REF3 !


PHASE MSI  %  2 1 1 !
  CONSTITUENT MSI : CR%,V: SI: !
  PARAMETER G(MSI,CR:SI;0) 298.14 -78732.28+311.58392*T-51.62865*T*LN(T)
   -.00447355*T**2+391330*T**(-1); 3600 N REF:6 !
  PARAMETER G(MSI,V:SI;0) 298.14 +5E3+GHSERVV#+GHSERSI#;
   3600 N REF:6 !
  PARAMETER L(MSI,CR,V:SI;0) 298.14 -8.9411E+04;
   3600 N REF:6 !

     
PHASE MSI2 %   2 1  2 !
  CONSTITUENT MSI2  :CR,SI,V: CR,SI : !
  PARAMETER G(MSI2,CR:CR;0) 298.14 +10000-1*T+3*GHSERCR#;
   3600 N REF:2 !
  PARAMETER G(MSI2,CR:SI;0) 298.14 -96694.43+333.33835*T-57.855747*T*LN(T)
   -.01322769*T**2-4.3203E-07*T**3; 3600 N REF:6 !
  PARAMETER G(MSI2,SI:CR;0) 298.14 +148569.93-12.65342*T
   +2*GHSERCR#+GHSERSI#; 3600 N REF:6 !
  PARAMETER G(MSI2,SI:SI;0) 298.14 +78860.26-15.77206*T+3*GHSERSI#;
   3600 N REF:6 !
  PARAMETER G(MSI2,V:SI;0)  2.98150E+02  +3*GVSI2#;  6.00000E+03  N 
   REF2 !
  PARAMETER L(MSI2,CR:CR,SI;0) 298.14 -35879.97; 3600 N REF:6 !
  PARAMETER L(MSI2,SI:CR,SI;0) 298.14 -35879.97; 3600 N REF:6 !
 
      
PHASE M3SI %   2 3  1 !
  CONSTITUENT M3SI  :CR,SI,V: CR,SI,V : !
  PARAMETER G(M3SI,CR:CR;0) 298.14 +20000+10*T+4*GHSERCR#;
   3600 N REF:2 !
  PARAMETER G(M3SI,CR:SI;0) 298.14 -126369.35+4.15051*T
   +3*GHSERCR#+GHSERSI#; 3600 N REF:6 !
  PARAMETER G(M3SI,SI:CR;0) 298.14 +233507.47-74.15051*T
   +GHSERCR#+3*GHSERSI#; 3600 N REF:6 !
  PARAMETER G(M3SI,SI:SI;0) 298.14 +208000-80*T
   +4*GHSERSI#;   3600 N REF:2 !
  PARAMETER G(M3SI,SI:V;0)  2.98150E+02  +4*GV3SI11#;  6.00000E+03  N  REF2 !
  PARAMETER G(M3SI,V:SI;0)  2.98150E+02  +4*GV3SI12#;  6.00000E+03  N  REF2 !
  PARAMETER G(M3SI,V:V;0)  2.98150E+02  +20000+4*GHSERVV#;
   6.00000E+03  N  REF1 !
  PARAMETER L(M3SI,CR,SI:CR;0) 298.14 -107840.95; 3600 N REF:6 !
  PARAMETER L(M3SI,CR,SI:SI;0) 298.14 -107840.95; 3600 N REF:6 !
  PARAMETER L(M3SI,CR:CR,SI;0) 298.14 -13020.93; 3600 N REF:6 !
  PARAMETER L(M3SI,SI:CR,SI;0) 298.14 -13020.93; 3600 N REF:6 !
  PARAMETER L(M3SI,SI,V:SI;0)  2.98150E+02  -155633.6;
   6.00000E+03  N  REF2 !
  PARAMETER L(M3SI,SI,V:V;0)  2.98150E+02  -155633.6;
   6.00000E+03  N  REF2 !
  PARAMETER L(M3SI,SI:SI,V;0)  2.98150E+02  +64172.4-27.65948*T;
   6.00000E+03  N  REF2 !
  PARAMETER L(M3SI,V:SI,V;0)  2.98150E+02  +64172.4-27.65948*T;
   6.00000E+03  N  REF2 !


PHASE M5SI3_ALPHA %  2 5 3 !
  CONSTITUENT M5SI3_ALPHA : CR,V: SI: !
  PARAMETER G(M5SI3_ALPHA,CR:SI;0) 298.14 -316433+1065.82816*T
   -182.578184*T*LN(T)-.023919688*T**2-2.31728E-06*T**3; 3600 N REF:6 !
  PARAMETER G(M5SI3_ALPHA,V:SI;0)  2.98150E+02  +8*GV5SI3#;  6.00000E+03  N 
    REF2 !


 PHASE M6SI5  %  2 .54545   .45455 !
   CONSTITUENT M6SI5  :CR,V% : SI :  !
   PARAMETER G(M6SI5,CR:SI;0)  2.98150E+02  -2.7979E+04
    +.54545*GHSERCR#+.45455*GHSERSI#;  6.00000E+03  N 
    REF7 !
   PARAMETER G(M6SI5,V:SI;0)  2.98150E+02  -52763.8+5.91316*T
    +.54545*GHSERVV#+.45455*GHSERSI#;  6.00000E+03 N
    REF2 !
   PARAMETER L(M6SI5,CR,V:SI;0)  2.98150E+02  -1.1708E+04+2.4141*T;
      6.00000E+03  N   REF7 !
   PARAMETER L(M6SI5,CR,V:SI;1)  2.98150E+02  -3.448E+03;
      6.00000E+03  N   REF7 !


PHASE M11SI8 %  2 11 8 !
  CONSTITUENT M11SI8 : CR,V: SI: !
  PARAMETER G(M11SI8,CR:SI;0) 298.14 -6.00568E+05+6.5627*T
+11*GHSERCR#+8*GHSERSI#;   3600 N REF:7 !
  PARAMETER G(M11SI8,V:SI;0)  2.98150E+02  -9.72949E+05+1.115672E+02*T
+11*GHSERVV#+8*GHSERSI#;  6.00000E+03  N REF7 !
  PARAMETER L(M11SI8,CR,V:SI;0)  2.98150E+02  -2.08895E+05+30*T;
  6.00000E+03  N REF7 !
  PARAMETER L(M11SI8,CR,V:SI;1)  2.98150E+02  -3.8571E+04;
  6.00000E+03  N REF7 !


 LIST_OF_REFERENCES
 NUMBER  SOURCE
   REF1   'PURE4 - SGTE Pure Elements (Unary) Database (Version 4.6), 
         developed by SGTE (Scientific Group Thermodata Europe), 1991-2008, 
         and provided by TCSAB (Jan. 2008). '
   REF2   'V-Si - Du and Nash Calphad 32 (2008) 320 '
   REF3   'Cr-V - Ghosh JPE 23(4) (2002) 310 '
   REF6   'Cr-Si - T. Ferreira Villela Thesis U.Sao Paulo (2011) '
   REF7   'V-Cr-Si - Chaia Intermet (2014) and JALCOM (2014) '

'

  ! 
 
