
$ Database file written 2013-10-20
$ From database: USER                    
 ELEMENT /-   ELECTRON_GAS              0.0000E+00  0.0000E+00  0.0000E+00!
 ELEMENT VA   VACUUM                    0.0000E+00  0.0000E+00  0.0000E+00!
 ELEMENT NI   FCC_A1                    5.8690E+01  4.7870E+03  2.9796E+01!
 ELEMENT SB   RHOMBO_A7                 1.2175E+02  5.8702E+03  4.5522E+01!
 ELEMENT SN   BCT_A5                    1.1871E+02  6.3220E+03  5.1195E+01!
 
 
 FUNCTION GHSERNI    2.98140E+02  -5179.159+117.854*T-22.096*T*LN(T)
     -.0048407*T**2;  1.72800E+03  Y
      -27840.62+279.134977*T-43.1*T*LN(T)+1.12754E+31*T**(-9);  3.00000E+03  
     N !
 FUNCTION GHSERSB    2.98140E+02  -9242.858+156.154689*T-30.5130752*T*LN(T)
     +.007748768*T**2-3.003415E-06*T**3+100625*T**(-1);  9.03780E+02  Y
      -11738.83+169.485872*T-31.38*T*LN(T)+1.616849E+27*T**(-9);  
     2.00000E+03  N !
 FUNCTION NI3SNLT    2.98150E+02  -28408+7.0009*T+.75*GHSERNI#+.25*GHSERSN#; 
      2.00000E+03  N !
 FUNCTION GHSERSN    1.00000E+02  -7958.517+122.765451*T-25.858*T*LN(T)
     +5.1185E-04*T**2-3.192767E-06*T**3+18440*T**(-1);  2.50000E+02  Y
      -5855.135+65.443315*T-15.961*T*LN(T)-.0188702*T**2+3.121167E-06*T**3
     -61960*T**(-1);  5.05080E+02  Y
      +2524.724+4.005269*T-8.2590486*T*LN(T)-.016814429*T**2
     +2.623131E-06*T**3-1081244*T**(-1)-1.2307E+25*T**(-9);  8.00000E+02  Y
      -8256.959+138.99688*T-28.4512*T*LN(T)-1.2307E+25*T**(-9);  3.00000E+03 
      N !
 FUNCTION NI5SB2F    2.98140E+02  -167499.64-7.7*T+5*GHSERNI#+2*GHSERSB#;  
     3.00000E+03  N !
 FUNCTION GNISBGAM   2.98140E+02  -23310+19.82*T-3.50035*T*LN(T)
     +.00932581948*T**2-3.009E-06*T**3+7.414E-21*T**7;  3.00000E+03  N !
 FUNCTION GHSBLOW    2.98140E+02  -9242.858+156.154689*T-30.5130752*T*LN(T)
     +.007748768*T**2-3.003415E-06*T**3+100625*T**(-1);  2.00000E+03  N !
 FUNCTION UN_ASS 298.15 0; 300 N !
 
 TYPE_DEFINITION % SEQ *!
 DEFINE_SYSTEM_DEFAULT ELEMENT 2 !
 DEFAULT_COMMAND DEF_SYS_ELEMENT VA /- !


 TYPE_DEFINITION & GES A_P_D BCC_A2 MAGNETIC  -1.0    4.00000E-01 !
 PHASE BCC_A2  %&  2 1   3 !
    CONSTITUENT BCC_A2  :NI,SB,SN : VA :  !

   PARAMETER G(BCC_A2,NI:VA;0)  2.98140E+02  +3535.925+114.298*T
  -22.096*T*LN(T)-.0048407*T**2;  1.72800E+03  Y
   -19125.536+275.578977*T-43.1*T*LN(T)+1.12754E+31*T**(-9);  3.00000E+03  N 
  REF0 !
   PARAMETER TC(BCC_A2,NI:VA;0)  2.98140E+02  575;  3.00000E+03  N REF0 !
   PARAMETER BMAGN(BCC_A2,NI:VA;0)  2.98140E+02  .85;  3.00000E+03  N REF0 !
   PARAMETER G(BCC_A2,SB:VA;0)  2.98140E+02  +10631.142+141.054689*T
  -30.5130752*T*LN(T)+.007748768*T**2-3.003415E-06*T**3+100625*T**(-1);  
  9.03780E+02  Y
   +8135.17+154.385872*T-31.38*T*LN(T)+1.616849E+27*T**(-9);  2.00000E+03  N 
  REF0 !
   PARAMETER G(BCC_A2,SN:VA;0)  1.00000E+02  -3558.517+116.765451*T
  -25.858*T*LN(T)+5.1185E-04*T**2-3.192767E-06*T**3+18440*T**(-1);  
  2.50000E+02  Y
   -1455.135+59.443315*T-15.961*T*LN(T)-.0188702*T**2+3.121167E-06*T**3
  -61960*T**(-1);  5.05080E+02  Y
   +6924.724-1.994731*T-8.2590486*T*LN(T)-.016814429*T**2+2.623131E-06*T**3
  -1081244*T**(-1)-1.2307E+25*T**(-9);  8.00000E+02  Y
   -3856.959+132.99688*T-28.4512*T*LN(T)-1.2307E+25*T**(-9);  3.00000E+03  N 
  REF0 !
   PARAMETER G(BCC_A2,NI,SN:VA;0)  2.98140E+02  +2369+43.736*T;  3.00000E+03 
   N REF0 !
   PARAMETER G(BCC_A2,NI,SN:VA;1)  2.98140E+02  -654762.56+63.272352*T;  
  3.00000E+03  N REF0 !
   PARAMETER G(BCC_A2,NI,SN:VA;2)  2.98140E+02  +689895.17-94.74087*T;  
  3.00000E+03  N REF0 !
   PARAMETER G(BCC_A2,NI,SB:VA;0)  2.98140E+02  -7113.38+20.14*T;  
  3.00000E+03  N REF0 !
   PARAMETER G(BCC_A2,NI,SB:VA;1)  2.98140E+02  -759123+164.971*T;  
  3.00000E+03  N REF0 !
   PARAMETER G(BCC_A2,NI,SB:VA;2)  2.98140E+02  +881253-239.576*T;  
  3.00000E+03  N REF0 !
   PARAMETER G(BCC_A2,NI,SB,SN:VA;0)  2.98140E+02  -605400-212*T;  
  3.00000E+03  N REF0 !
   PARAMETER G(BCC_A2,NI,SB,SN:VA;1)  2.98140E+02  2110000;  3.00000E+03  N 
  REF0 !
   PARAMETER G(BCC_A2,NI,SB,SN:VA;2)  2.98140E+02  2130000;  3.00000E+03  N 
  REF0 !
   PARAMETER G(BCC_A2,SB,SN:VA;0)  2.98140E+02  -3000;  1.00000E+03  N REF0 !


 PHASE BCT_A5  %  1  1.0  !
    CONSTITUENT BCT_A5  :NI,SB,SN% :  !

   PARAMETER G(BCT_A5,NI;0)  2.98140E+02  +10023-4.556*T+GHSERNI#;  
  4.00000E+03  N REF0 !
   PARAMETER G(BCT_A5,SB;0)  2.98140E+02  +3757.142+148.154689*T
  -30.5130752*T*LN(T)+.007748768*T**2-3.003415E-06*T**3+100625*T**(-1);  
  9.03780E+02  Y
   +1261.17+161.485872*T-31.38*T*LN(T)+1.616849E+27*T**(-9);  2.00000E+03  N 
  REF0 !
   PARAMETER G(BCT_A5,SN;0)  1.00000E+02  -7958.517+122.765451*T
  -25.858*T*LN(T)+5.1185E-04*T**2-3.192767E-06*T**3+18440*T**(-1);  
  2.50000E+02  Y
   -5855.135+65.443315*T-15.961*T*LN(T)-.0188702*T**2+3.121167E-06*T**3
  -61960*T**(-1);  5.05080E+02  Y
   +2524.724+4.005269*T-8.2590486*T*LN(T)-.016814429*T**2+2.623131E-06*T**3
  -1081244*T**(-1)-1.2307E+25*T**(-9);  8.00000E+02  Y
   -8256.959+138.99688*T-28.4512*T*LN(T)-1.2307E+25*T**(-9);  3.00000E+03  N 
  REF0 !
   PARAMETER G(BCT_A5,NI,SN;0)  2.98140E+02  -21500;  4.00000E+03  N REF0 !
   PARAMETER G(BCT_A5,NI,SB,SN;0)  2.98140E+02  0.0 ;  4.00000E+03  N REF0 !
   PARAMETER G(BCT_A5,NI,SB,SN;1)  2.98140E+02  0.0 ;  4.00000E+03  N REF0 !
   PARAMETER G(BCT_A5,NI,SB,SN;2)  2.98140E+02  0.0 ;  4.00000E+03  N REF0 !
   PARAMETER G(BCT_A5,SB,SN;0)  2.98150E+02  +3659.116-21.38*T;  3.00000E+03 
   N REF0 !
   PARAMETER G(BCT_A5,SB,SN;1)  2.98150E+02  -21860.53+44.487*T;  
  3.00000E+03  N REF0 !


 PHASE DIAMOND_A4  %  1  1.0  !
    CONSTITUENT DIAMOND_A4  :SN :  !

   PARAMETER G(DIAMOND_A4,SN;0)  1.00000E+02  -9579.608+114.007785*T
  -22.972*T*LN(T)-.00813975*T**2+2.7288E-06*T**3+25615*T**(-1);  2.98140E+02 
   Y
   -9063.001+104.84654*T-21.5750771*T*LN(T)-.008575282*T**2
  +1.784447E-06*T**3-2544*T**(-1);  8.00000E+02  Y
   -10909.351+147.396535*T-28.4512*T*LN(T);  3.00000E+03  N REF0 !


 TYPE_DEFINITION ' GES A_P_D FCC_A1 MAGNETIC  -3.0    2.80000E-01 !
 PHASE FCC_A1  %'  2 1   1 !
    CONSTITUENT FCC_A1  :NI%,SB,SN : VA :  !

   PARAMETER G(FCC_A1,NI:VA;0)  2.98140E+02  -5179.159+117.854*T
  -22.096*T*LN(T)-.0048407*T**2;  1.72800E+03  Y
   -27840.62+279.134977*T-43.1*T*LN(T)+1.12754E+31*T**(-9);  3.00000E+03  N 
  REF0 !
   PARAMETER TC(FCC_A1,NI:VA;0)  2.98140E+02  633;  3.00000E+03  N REF0 !
   PARAMETER BMAGN(FCC_A1,NI:VA;0)  2.98140E+02  .52;  3.00000E+03  N REF0 !
   PARAMETER G(FCC_A1,SB:VA;0)  2.98140E+02  +10631.142+142.454689*T
  -30.5130752*T*LN(T)+.007748768*T**2-3.003415E-06*T**3+100625*T**(-1);  
  9.03780E+02  Y
   +8135.17+155.785872*T-31.38*T*LN(T)+1.616849E+27*T**(-9);  2.00000E+03  N 
  REF0 !
   PARAMETER G(FCC_A1,SN:VA;0)  2.98140E+02  -345.135+56.983315*T
  -15.961*T*LN(T)-.0188702*T**2+3.121167E-06*T**3-61960*T**(-1);  
  5.05080E+02  Y
   +8034.724-4.454731*T-8.2590486*T*LN(T)-.016814429*T**2+2.623131E-06*T**3
  -1081244*T**(-1)-1.2307E+25*T**(-9);  8.00000E+02  Y
   -2746.959+130.53688*T-28.4512*T*LN(T)-1.2307E+25*T**(-9);  3.00000E+03  N 
  REF0 !
   PARAMETER G(FCC_A1,NI,SB:VA;0)  2.98140E+02  -64860+17.119*T;  
  3.00000E+03  N REF0 !
   PARAMETER G(FCC_A1,NI,SB:VA;1)  2.98140E+02  -33663.84+4.5*T;  
  3.00000E+03  N REF0 !
   PARAMETER G(FCC_A1,NI,SB:VA;2)  2.98140E+02  -38039.58+3.034*T;  
  3.00000E+03  N REF0 !
   PARAMETER G(FCC_A1,NI,SB,SN:VA;0)  2.98150E+02  30000;  3.00000E+03  N 
  REF0 !
   PARAMETER G(FCC_A1,NI,SN:VA;0)  2.98150E+02  -69507.35+74.5697727*T
  -8.0319551*T*LN(T);  3.00000E+03  N REF0 !
   PARAMETER G(FCC_A1,NI,SN:VA;1)  2.98150E+02  -12395.19;  3.00000E+03  N 
  REF0 !
   PARAMETER TC(FCC_A1,NI,SN:VA;0)  2.98150E+02  -6000;  3.00000E+03  N REF0 !
   PARAMETER TC(FCC_A1,NI,SN:VA;1)  2.98150E+02  3000;  3.00000E+03  N REF0 !
   PARAMETER BMAGN(FCC_A1,NI,SN:VA;0)  2.98140E+02  -6.8002;  4.00000E+03  N 
  REF0 !
   PARAMETER BMAGN(FCC_A1,NI,SN:VA;1)  2.98140E+02  4.3689;  4.00000E+03  N 
  REF0 !
   PARAMETER G(FCC_A1,SB,SN:VA;0)  2.98140E+02  -3000;  1.00000E+03  N REF0 !


 TYPE_DEFINITION ( GES A_P_D HCP_A3 MAGNETIC  -3.0    2.80000E-01 !
 PHASE HCP_A3  %(  2 1   .5 !
    CONSTITUENT HCP_A3  :NI,SN : VA :  !

   PARAMETER G(HCP_A3,NI:VA;0)  2.98140E+02  -4133.159+119.1092*T
  -22.096*T*LN(T)-.0048407*T**2;  1.72800E+03  Y
   -26794.62+280.390177*T-43.1*T*LN(T)+1.12754E+31*T**(-9);  3.00000E+03  N 
  REF0 !
   PARAMETER G(HCP_A3,SN:VA;0)  2.98140E+02  -1955.135+57.797315*T
  -15.961*T*LN(T)-.0188702*T**2+3.121167E-06*T**3-61960*T**(-1);  
  5.05080E+02  Y
   +6424.724-3.640731*T-8.2590486*T*LN(T)-.016814429*T**2+2.623131E-06*T**3
  -1081244*T**(-1)-1.2307E+25*T**(-9);  8.00000E+02  Y
   -4356.959+131.35088*T-28.4512*T*LN(T)-1.2307E+25*T**(-9);  3.00000E+03  N 
  REF0 !
   PARAMETER G(HCP_A3,NI,SN:VA;0)  2.98140E+02  2000;  3.00000E+03  N REF0 !


 PHASE LIQUID  %  1  1.0  !
    CONSTITUENT LIQUID  :NI,SB,SN :  !

   PARAMETER G(LIQUID,NI;0)  2.98140E+02  +11235.527+108.457*T
  -22.096*T*LN(T)-.0048407*T**2-3.82318E-21*T**7;  1.72800E+03  Y
   -9549.817+268.597977*T-43.1*T*LN(T);  3.00000E+03  N REF0 !
   PARAMETER G(LIQUID,SB;0)  2.98140E+02  +10579.47+134.231525*T
  -30.5130752*T*LN(T)+.007748768*T**2-3.003415E-06*T**3+100625*T**(-1)
  -1.74847E-20*T**7;  9.03780E+02  Y
   +8175.359+147.455986*T-31.38*T*LN(T);  2.00000E+03  N REF0 !
   PARAMETER G(LIQUID,SN;0)  1.00000E+02  -855.425+108.677684*T
  -25.858*T*LN(T)+5.1185E-04*T**2-3.192767E-06*T**3+18440*T**(-1)
  +1.47031E-18*T**7;  2.50000E+02  Y
   +1247.957+51.355548*T-15.961*T*LN(T)-.0188702*T**2+3.121167E-06*T**3
  -61960*T**(-1)+1.47031E-18*T**7;  5.05080E+02  Y
   +9496.31-9.809114*T-8.2590486*T*LN(T)-.016814429*T**2+2.623131E-06*T**3
  -1081244*T**(-1);  8.00000E+02  Y
   -1285.372+125.182498*T-28.4512*T*LN(T);  3.00000E+03  N REF0 !
   PARAMETER G(LIQUID,NI,SB;0)  2.98140E+02  -73580.86-4.01441*T;  
  3.00000E+03  N REF0 !
   PARAMETER G(LIQUID,NI,SB;1)  2.98140E+02  -12843.3-11.0286*T;  
  3.00000E+03  N REF0 !
   PARAMETER G(LIQUID,NI,SB;2)  2.98140E+02  -4010+9.7*T;  3.00000E+03  N 
  REF0 !
   PARAMETER G(LIQUID,NI,SB,SN;0)  2.98140E+02  +145475-75*T;  3.00000E+03  
  N REF0 !
   PARAMETER G(LIQUID,NI,SB,SN;1)  2.98140E+02  +36584+26.15*T;  3.00000E+03 
   N REF0 !
   PARAMETER G(LIQUID,NI,SB,SN;2)  2.98140E+02  -87652.4+69.78*T;  
  3.00000E+03  N REF0 !
   PARAMETER G(LIQUID,NI,SN;0)  2.98150E+02  -104602.87+197.8089*T
  -21.6959*T*LN(T);  3.00000E+03  N REF0 !
   PARAMETER G(LIQUID,NI,SN;1)  2.98150E+02  -30772.17+52.5528*T
  -7.56094*T*LN(T);  3.00000E+03  N REF0 !
   PARAMETER G(LIQUID,NI,SN;2)  2.98150E+02  6582.31;  3.00000E+03  N REF0 !
   PARAMETER G(LIQUID,SB,SN;0)  2.98150E+02  -5695.1-1.709*T;  3.00000E+03  
  N REF0 !
   PARAMETER G(LIQUID,SB,SN;1)  2.98150E+02  782.6;  3.00000E+03  N REF0 !
   PARAMETER G(LIQUID,SB,SN;2)  2.98150E+02  1840.9;  3.00000E+03  N REF0 !


 PHASE NI3SB_DELTA  %  2 3   1 !
    CONSTITUENT NI3SB_DELTA  :NI : NI,SB,SN :  !

   PARAMETER G(NI3SB_DELTA,NI:NI;0)  2.98140E+02  +14000-4.44*T+4*GHSERNI#;  
  3.00000E+03  N REF0 !
   PARAMETER G(NI3SB_DELTA,NI:SB;0)  2.98140E+02  -85840-5.24*T+3*GHSERNI#
  +GHSERSB#;  3.00000E+03  N REF0 !
   PARAMETER G(NI3SB_DELTA,NI:SN;0)  2.98140E+02  +4*NI3SNLT#+11200;  
  3.00000E+03  N REF0 !
   PARAMETER G(NI3SB_DELTA,NI:NI,SB;0)  2.98140E+02  -29010.24+44*T;  
  3.00000E+03  N REF0 !
   PARAMETER G(NI3SB_DELTA,NI:SB,SN;0)  2.98140E+02  -91042.5+72.5*T;  
  3.00000E+03  N REF0 !
   PARAMETER G(NI3SB_DELTA,NI:SB,SN;1)  2.98140E+02  -22920+40*T;  
  3.00000E+03  N REF0 !
   PARAMETER G(NI3SB_DELTA,NI:SB,SN;2)  2.98140E+02  -91380+60*T;  
  3.00000E+03  N REF0 !


 PHASE NI3SN4  %  3 .25   .25   .5 !
    CONSTITUENT NI3SN4  :NI : NI,SN : SB,SN :  !

   PARAMETER G(NI3SN4,NI:NI:SB;0)  2.98150E+02  +5000+.5*GHSERNI#
  +.5*GHSERSB#;  3.00000E+03  N REF0 !
   PARAMETER G(NI3SN4,NI:SN:SB;0)  2.98150E+02  +5000+.25*GHSERNI#
  +.25*GHSERSN#+.5*GHSERSB#;  3.00000E+03  N REF0 !
   PARAMETER G(NI3SN4,NI:NI:SN;0)  2.98150E+02  -25078.56+4.291*T
  +.5*GHSERNI#+.5*GHSERSN#;  3.00000E+03  N REF0 !
   PARAMETER G(NI3SN4,NI:SN:SN;0)  2.98150E+02  +7613.24+8.749*T
  +.25*GHSERNI#+.75*GHSERSN#;  3.00000E+03  N REF0 !
   PARAMETER G(NI3SN4,NI:NI:SB,SN;0)  2.98150E+02  -48060+15*T;  3.00000E+03 
   N REF0 !
   PARAMETER G(NI3SN4,NI:SN:SB,SN;0)  2.98150E+02  -70876+12*T;  3.00000E+03 
   N REF0 !
   PARAMETER G(NI3SN4,NI:NI,SN:SN;0)  2.98150E+02  -52928.16;  3.00000E+03  
  N REF0 !


 PHASE NI3SN_LT  %  2 .75   .25 !
    CONSTITUENT NI3SN_LT  :NI,SN : NI,SB,SN :  !

   PARAMETER G(NI3SN_LT,NI:NI;0)  2.98150E+02  +6300+GHSERNI#;  3.00000E+03  
  N REF0 !
   PARAMETER G(NI3SN_LT,SN:NI;0)  2.98150E+02  +5000+.25*GHSERNI#
  +.75*GHSERSN#;  3.00000E+03  N REF0 !
   PARAMETER G(NI3SN_LT,NI:SB;0)  2.98150E+02  -13000+.75*GHSERNI#
  +.25*GHSERSB#;  3.00000E+03  N REF0 !
   PARAMETER G(NI3SN_LT,SN:SB;0)  2.98150E+02  +1000+.25*GHSERSB#
  +.75*GHSERSN#;  3.00000E+03  N REF0 !
   PARAMETER G(NI3SN_LT,NI:SN;0)  2.98150E+02  -28408+7.0009*T+.75*GHSERNI#
  +.25*GHSERSN#;  3.00000E+03  N REF0 !
   PARAMETER G(NI3SN_LT,SN:SN;0)  2.98150E+02  +5000+GHSERSN#;  3.00000E+03  
  N REF0 !
   PARAMETER G(NI3SN_LT,NI:SB,SN;0)  2.98150E+02  -16009.8+2.6*T;  
  3.00000E+03  N REF0 !
   PARAMETER G(NI3SN_LT,NI:SB,SN;1)  2.98150E+02  0.0 ;  3.00000E+03  N REF0 !
   PARAMETER G(NI3SN_LT,NI:SB,SN;2)  2.98150E+02  0.0 ;  3.00000E+03  N REF0 !


 PHASE NI5SB2  %  2 5   2 !
    CONSTITUENT NI5SB2  :NI : NI,SB,SN :  !

   PARAMETER G(NI5SB2,NI:NI;0)  2.98140E+02  +15407.7+5.6035*T+7*GHSERNI#;  
  3.00000E+03  N REF0 !
   PARAMETER G(NI5SB2,NI:SB;0)  2.98140E+02  -167499.64-7.7*T+5*GHSERNI#
  +2*GHSERSB#;  3.00000E+03  N REF0 !
   PARAMETER G(NI5SB2,NI:SN;0)  2.98140E+02  -10460+20*T+NI5SB2F#;  
  3.00000E+03  N REF0 !
   PARAMETER G(NI5SB2,NI:NI,SB;0)  2.98140E+02  -50050+42*T;  3.00000E+03  N 
  REF0 !
   PARAMETER G(NI5SB2,NI:SB,SN;0)  2.98140E+02  -17300+100*T;  3.00000E+03  
  N REF0 !
   PARAMETER G(NI5SB2,NI:SB,SN;1)  2.98140E+02  -48650+50*T;  3.00000E+03  N 
  REF0 !
   PARAMETER G(NI5SB2,NI:SB,SN;2)  2.98140E+02  -383925+225*T;  3.00000E+03  
  N REF0 !


 PHASE NIAS_TYPE  %  3 1   1   1 !
    CONSTITUENT NIAS_TYPE  :NI%,VA : NI,VA% : NI,SB,SN% :  !

   PARAMETER G(NIAS_TYPE,NI:NI:NI;0)  2.98140E+02  +31637.299+355.176064*T
  -66.288*T*LN(T)-.0145221*T**2;  3.00000E+03  N REF0 !
   PARAMETER G(NIAS_TYPE,VA:NI:NI;0)  2.98140E+02  +21091.532+236.784043*T
  -44.192*T*LN(T)-.0096814*T**2;  3.00000E+03  N REF0 !
   PARAMETER G(NIAS_TYPE,NI:VA:NI;0)  2.98140E+02  +21091.532+236.784043*T
  -44.192*T*LN(T)-.0096814*T**2;  3.00000E+03  N REF0 !
   PARAMETER G(NIAS_TYPE,VA:VA:NI;0)  2.98140E+02  +10545.766+118.58688*T
  -22.096*T*LN(T)-.0048407*T**2;  3.00000E+03  N REF0 !
   PARAMETER G(NIAS_TYPE,NI:NI:SB;0)  2.98140E+02  -48000+6*T+2*GHSERNI#
  +GHSERSB#;  3.00000E+03  N REF0 !
   PARAMETER G(NIAS_TYPE,VA:NI:SB;0)  2.98140E+02  -9546.46014+158.91*T
  +GHSERNI#+GHSERSB#;  3.00000E+03  N REF0 !
   PARAMETER G(NIAS_TYPE,NI:VA:SB;0)  2.98140E+02  +3*GNISBGAM#+GHSERNI#
  +GHSBLOW#;  3.00000E+03  N REF0 !
   PARAMETER G(NIAS_TYPE,VA:VA:SB;0)  2.98140E+02  +16567.65+3.9*T+GHSERSB#; 
   3.00000E+03  N REF0 !
   PARAMETER G(NIAS_TYPE,NI:NI:SN;0)  2.98140E+02  +2*GHSERNI#+GHSERSN#
  -83734.818+14.6888165*T;  3.00000E+03  N REF0 !
   PARAMETER G(NIAS_TYPE,VA:NI:SN;0)  2.98140E+02  +5000+GHSERSN#+GHSERNI#;  
  3.00000E+03  N REF0 !
   PARAMETER G(NIAS_TYPE,NI:VA:SN;0)  2.98140E+02  +GHSERNI#+GHSERSN#
  -52177.98+10.774*T;  3.00000E+03  N REF0 !
   PARAMETER G(NIAS_TYPE,VA:VA:SN;0)  2.98140E+02  +20000+GHSERSN#;  
  3.00000E+03  N REF0 !
   PARAMETER G(NIAS_TYPE,NI,VA:NI:SB;0)  2.98140E+02  -3600-6*T;  
  3.00000E+03  N REF0 !
   PARAMETER G(NIAS_TYPE,NI:NI,VA:SB;0)  2.98140E+02  -40500+9*T;  
  3.00000E+03  N REF0 !
   PARAMETER G(NIAS_TYPE,NI:NI:SB,SN;0)  2.98140E+02  -70456.2+39.4*T;  
  3.00000E+03  N REF0 !
   PARAMETER G(NIAS_TYPE,NI:NI:SB,SN;1)  2.98140E+02  +13436.426-11.455*T;  
  3.00000E+03  N REF0 !
   PARAMETER G(NIAS_TYPE,NI:NI:SB,SN;2)  2.98140E+02  -68186.2+49.4*T;  
  3.00000E+03  N REF0 !
   PARAMETER G(NIAS_TYPE,VA:NI,VA:SB;0)  2.98140E+02  -40500+9*T;  
  3.00000E+03  N REF0 !
   PARAMETER G(NIAS_TYPE,NI,VA:VA:SB;0)  2.98140E+02  -3600-6*T;  
  3.00000E+03  N REF0 !
   PARAMETER G(NIAS_TYPE,NI:VA:SB,SN;0)  2.98140E+02  -25253.803+7.534*T;  
  3.00000E+03  N REF0 !
   PARAMETER G(NIAS_TYPE,NI:VA:SB,SN;1)  2.98140E+02  11000;  3.00000E+03  N 
  REF0 !
   PARAMETER G(NIAS_TYPE,NI:VA:SB,SN;2)  2.98140E+02  -2000;  3.00000E+03  N 
  REF0 !
   PARAMETER G(NIAS_TYPE,NI:NI,VA:SN;0)  2.98140E+02  -9784.4-12.385*T;  
  3.00000E+03  N REF0 !
   PARAMETER G(NIAS_TYPE,NI:NI,VA:SN;1)  2.98140E+02  12000;  3.00000E+03  N 
  REF0 !


 PHASE NISB2  %  2 1   2 !
    CONSTITUENT NISB2  :NI : SB,SN :  !

   PARAMETER G(NISB2,NI:SB;0)  2.98140E+02  -78060+13.29*T+GHSERNI#
  +2*GHSERSB#;  3.00000E+03  N REF0 !
   PARAMETER G(NISB2,NI:SN;0)  2.98140E+02  +5000+GHSERNI#+2*GHSERSN#;  
  3.00000E+03  N REF0 !
   PARAMETER G(NISB2,NI:SB,SN;0)  2.98140E+02  -63000;  3.00000E+03  N REF0 !
   PARAMETER G(NISB2,NI:SB,SN;1)  2.98140E+02  0.0 ;  3.00000E+03  N REF0 !


 PHASE NISBSN_TAU  %  3 .235   .706   .059 !
    CONSTITUENT NISBSN_TAU  :NI : SB,SN : SN,VA :  !

   PARAMETER G(NISBSN_TAU,NI:SB:SN;0)  2.98150E+02  +1000+.235*GHSERNI#
  +.706*GHSERSB#+.059*GHSERSN#;  3.00000E+03  N REF0 !
   PARAMETER G(NISBSN_TAU,NI:SN:SN;0)  2.98150E+02  +5000+.235*GHSERNI#
  +.765*GHSERSN#;  3.00000E+03  N REF0 !
   PARAMETER G(NISBSN_TAU,NI:SB:VA;0)  2.98150E+02  +5000+.235*GHSERNI#
  +.706*GHSERSB#;  3.00000E+03  N REF0 !
   PARAMETER G(NISBSN_TAU,NI:SN:VA;0)  2.98150E+02  +5000+.235*GHSERNI#
  +.706*GHSERSN#;  3.00000E+03  N REF0 !
   PARAMETER G(NISBSN_TAU,NI:SB,SN:SN;0)  2.98150E+02  -55730+10*T;  
  3.00000E+03  N REF0 !
   PARAMETER G(NISBSN_TAU,NI:SB,SN:SN;1)  2.98150E+02  21000;  3.00000E+03  
  N REF0 !
   PARAMETER G(NISBSN_TAU,NI:SB:SN,VA;0)  2.98150E+02  -57819+15.33*T;  
  3.00000E+03  N REF0 !
   PARAMETER G(NISBSN_TAU,NI:SB:SN,VA;1)  2.98150E+02  91000;  3.00000E+03  
  N REF0 !
   PARAMETER G(NISBSN_TAU,NI:SB,SN:VA;0)  2.98150E+02  -67032.55+41.69*T;  
  3.00000E+03  N REF0 !


 PHASE RHOMBO_A7  %  1  1.0  !
    CONSTITUENT RHOMBO_A7  :SB%,SN :  !

   PARAMETER G(RHOMBO_A7,SB;0)  2.98140E+02  -9242.858+156.154689*T
  -30.5130752*T*LN(T)+.007748768*T**2-3.003415E-06*T**3+100625*T**(-1);  
  9.03780E+02  Y
   -11738.83+169.485872*T-31.38*T*LN(T)+1.616849E+27*T**(-9);  2.00000E+03  
  N REF0 !
   PARAMETER G(RHOMBO_A7,SN;0)  1.00000E+02  -5923.517+122.765451*T
  -25.858*T*LN(T)+5.1185E-04*T**2-3.192767E-06*T**3+18440*T**(-1);  
  2.50000E+02  Y
   -3820.135+65.443315*T-15.961*T*LN(T)-.0188702*T**2+3.121167E-06*T**3
  -61960*T**(-1);  5.05080E+02  Y
   +4559.724+4.005269*T-8.2590486*T*LN(T)-.016814429*T**2+2.623131E-06*T**3
  -1081244*T**(-1)-1.2307E+25*T**(-9);  8.00000E+02  Y
   -6221.959+138.99688*T-28.4512*T*LN(T)-1.2307E+25*T**(-9);  3.00000E+03  N 
  REF0 !
   PARAMETER G(RHOMBO_A7,SB,SN;0)  2.98150E+02  +4000-5.7323*T;  3.00000E+03 
   N REF0 !


 PHASE SB2SN3  %  2 2   3 !
    CONSTITUENT SB2SN3  :NI,SB : NI,SN :  !

   PARAMETER G(SB2SN3,NI:NI;0)  2.98150E+02  +5000+5*GHSERNI#;   6.00000E+03 
    N REF0 !
   PARAMETER G(SB2SN3,SB:NI;0)  2.98150E+02  +5000+2*GHSERSB#+3*GHSERNI#;  
  3.00000E+03  N REF0 !
   PARAMETER G(SB2SN3,NI:SN;0)  2.98150E+02  +5000+2*GHSERNI#+3*GHSERSN#;  
  3.00000E+03  N REF0 !
   PARAMETER G(SB2SN3,SB:SN;0)  2.98150E+02  -232.588-31.032*T+2*GHSERSB#
  +3*GHSERSN#;  3.00000E+03  N REF0 !
   PARAMETER G(SB2SN3,NI,SB:SN;0)  2.98150E+02  -199357+71.4*T;  3.00000E+03 
   N REF0 !


 PHASE SBSN  %  2 1   1 !
    CONSTITUENT SBSN  :NI,SB%,SN : NI,SB,SN% :  !

   PARAMETER G(SBSN,NI:NI;0)  2.98150E+02  +5000+2*GHSERNI#;   6.00000E+03   
  N REF0 !
   PARAMETER G(SBSN,SB:NI;0)  2.98150E+02  +5000+GHSERSB#+GHSERNI#;  
  3.00000E+03  N REF0 !
   PARAMETER G(SBSN,SN:NI;0)  2.98150E+02  +5000+GHSERNI#+GHSERSN#;  
  3.00000E+03  N REF0 !
   PARAMETER G(SBSN,NI:SB;0)  2.98150E+02  +5000+GHSERSB#+GHSERNI#;  
  3.00000E+03  N REF0 !
   PARAMETER G(SBSN,SB:SB;0)  2.98150E+02  +2*GHSERSB#+6227.48;  3.00000E+03 
   N REF0 !
   PARAMETER G(SBSN,SN:SB;0)  2.98150E+02  -6035.69-2.478*T+GHSERSN#
  +GHSERSB#;  3.00000E+03  N REF0 !
   PARAMETER G(SBSN,NI:SN;0)  2.98150E+02  +5000+GHSERNI#+GHSERSN#;  
  3.00000E+03  N REF0 !
   PARAMETER G(SBSN,SB:SN;0)  2.98150E+02  -6035.69-2.478*T+GHSERSB#
  +GHSERSN#;  3.00000E+03  N REF0 !
   PARAMETER G(SBSN,SN:SN;0)  2.98150E+02  +2*GHSERSN#+7463.66;  3.00000E+03 
   N REF0 !
   PARAMETER G(SBSN,SN:NI,SB;0)  2.98150E+02  -153156.6+108.85*T;  
  3.00000E+03  N REF0 !
   PARAMETER G(SBSN,SB,SN:SB;0)  2.98150E+02  -4300.502+6.638*T;  
  3.00000E+03  N REF0 !
   PARAMETER G(SBSN,SB:SB,SN;0)  2.98150E+02  -4300.502+6.638*T;  
  3.00000E+03  N REF0 !
   PARAMETER G(SBSN,SN:SB,SN;0)  2.98150E+02  -1600.725+6.599*T;  
  3.00000E+03  N REF0 !
   PARAMETER G(SBSN,NI,SB:SN;0)  2.98150E+02  -153156.6+108.85*T;  
  3.00000E+03  N REF0 !
   PARAMETER G(SBSN,SB,SN:SN;0)  2.98150E+02  -1600.725+6.599*T;  
  3.00000E+03  N REF0 !


 PHASE TETRAG_A6  %  1  1.0  !
    CONSTITUENT TETRAG_A6  :SN :  !

   PARAMETER G(TETRAG_A6,SN;0)  2.98140E+02  -468.135+57.181195*T
  -15.961*T*LN(T)-.0188702*T**2+3.121167E-06*T**3-61960*T**(-1);  
  5.05080E+02  Y
   +7911.724-4.256851*T-8.2590486*T*LN(T)-.016814429*T**2+2.623131E-06*T**3
  -1081244*T**(-1)-1.2307E+25*T**(-9);  8.00000E+02  Y
   -2869.959+130.73476*T-28.4512*T*LN(T)-1.2307E+25*T**(-9);  3.00000E+03  N 
  REF0 !

 LIST_OF_REFERENCES
 NUMBER  SOURCE
  ! 
 
