

ELEMENT /-   ELECTRON_GAS              0.0000E+00  0.0000E+00  0.0000E+00!
ELEMENT VA   VACUUM                    0.0000E+00  0.0000E+00  0.0000E+00!
ELEMENT CE   FCC_A1                    1.4011E+02  0.0000E+00  0.0000E+00!
ELEMENT FE   BCC_A2                    5.5847E+01  4.4890E+03  2.7280E+01!
ELEMENT SB   RHOMBOHEDRAL_A7           1.2175E+02  5.8702E+03  4.5522E+01!

 FUNCTION GHSERFE    2.98140E+02  +1225.7+124.134*T
   -23.5143*T*LN(T)
   -.00439752*T**2-5.8927E-08*T**3+77359*T**(-1);
    1.81100E+03  Y
   -25383.581+299.31255*T-46*T*LN(T)
   +2.29603E+31*T**(-9);  
   6.00000E+03  N  !

 FUNCTION GFEFCC     2.98140E+02  -1462.4+8.282*T-1.15*T*LN(T)
   +6.4E-04*T**2+GHSERFE#;  1.81100E+03  Y
   -27098.266+300.25256*T-46*T*LN(T)
   +2.78854E+31*T**(-9);  6.00000E+03  N ! 

 FUNCTION GFELIQ     2.98140E+02  +12040.17-6.55843*T+GHSERFE#
  -3.67516E-21*T**7;  1.81100E+03  Y
   -10838.83+291.302*T-46*T*LN(T);  6.00000E+03  N !
 FUNCTION GHSERSB    2.98140E+02  -9242.858+156.154689*T
    -30.5130752*T*LN(T)
   +.007748768*T**2-3.003415E-06*T**3+100625*T**(-1);  
    9.03780E+02  Y
   -11738.83+169.485872*T-31.38*T*LN(T)+1.616849E+27*T**(-9);  
   2.00000E+03  N !

 FUNCTION GHSERSB_LOW  298.14  -9242.858+156.154689*T
   -30.5130752*T*LN(T)
    +.007748768*T**2-3.003415E-06*T**3+100625*T**(-1);  6000 N !

 FUNCTION GHSERCE    2.98140E+02  -7160.519+84.23022*T
  -22.3664*T*LN(T)-.0067103*T**2-3.20773E-07*T**3
  -18117*T**(-1);  1.00000E+03   Y
  -79678.506+659.4604*T-101.32248*T*LN(T)
   +.026046487*T**2
  -1.930297E-06*T**3+11531707*T**(-1);  2.00000E+03  Y
  -14198.639+190.370192*T-37.6978*T*LN(T);  4.00000E+03  N !
 
 FUNCTION UN_ASS 298.15 0; 300 N !

 TYPE_DEFINITION % SEQ *!
 DEFINE_SYSTEM_DEFAULT SPECIE 2 !
 DEFAULT_COMMAND DEF_SYS_ELEMENT VA !


 PHASE LIQUID  %  1  1.0  !
 CONSTITUENT LIQUID  :CE,FE,SB :  !

 PARAMETER G(LIQUID,CE;0)  2.98140E+02  +4117.865-11.423898*T
  -7.5383948*T*LN(T)-.02936407*T**2
  +4.827734E-06*T**3-198834*T**(-1);  1.00000E+03  Y
  -6730.605+183.023193*T-37.6978*T*LN(T);  2.00000E+03  Y
  +7468.034-7.346999*T+GHSERCE#;  4.00000E+03  N REF:0 !
 PARAMETER G(LIQUID,FE;0)  2.98140E+02  +13265.87+117.57557*T
  -23.5143*T*LN(T)-.00439752*T**2-5.8927E-08*T**3+77359*T**(-1)
  -3.67516E-21*T**7;  1.81100E+03  Y
  -10838.83+291.302*T-46*T*LN(T);  6.00000E+03  N PURE4   !
 PARAMETER G(LIQUID,SB;0)  2.98140E+02  +19822.328
  -21.923164*T+GHSERSB#
  -1.74847E-20*T**7;  9.03780E+02  Y
    +8175.359+147.455986*T-31.38*T*LN(T);  2.00000E+03  N REF:0 !

 PARAMETER L(LIQUID,CE,FE;0)  2.98150E+02   -3581.8+1.91723*T;
    6.00000E+03   N REF:0 !
 PARAMETER L(LIQUID,CE,FE;1)  2.98150E+02  +2285.0-7.5868*T;   
    6.00000E+03   N REF:0 !
 PARAMETER L(LIQUID,CE,FE;2)  2.98150E+02  0;   
    6.00000E+03   N REF:0 !

 PARAMETER L(LIQUID,CE,SB;0)  2.98140E+02 
   (-308772.2+74.355*T)*EXP(-8.56274E-05*T);  
    2.00000E+03  N REF:0 !
 PARAMETER L(LIQUID,CE,SB;2)  2.98140E+02  +45500; 
    2.00000E+03  N REF:0 !

 PARAMETER L(LIQUID,FE,SB;0)  2.98140E+02 -9299-0.49424*T;   6000  N !
 PARAMETER L(LIQUID,FE,SB;1)  2.98140E+02 +500-3.15863*T;      6000  N !
 PARAMETER L(LIQUID,FE,SB;2)  2.98140E+02  +2500+6.1888*T;    6000  N !

 PARAMETER L(LIQUID,CE,FE,SB;0)  2.98140E+02  
   (-3.12E+05+80*T)*EXP(-8.12E-05*T);    6000  N !
 PARAMETER L(LIQUID,CE,FE,SB;1)  2.98140E+02  
   (-4.52E+05+80*T)*EXP(-9.98E-05*T);   6000  N !
 PARAMETER L(LIQUID,CE,FE,SB;2)  2.98140E+02 
   (-4.01E+05+95*T)*EXP(-9.25E-05*T);   6000  N !


 TYPE_DEFINITION & GES A_P_D BCC_A2 MAGNETIC  -1.0    4.00000E-01 !
 PHASE BCC_A2  %&  2 1   3 !
 CONSTITUENT BCC_A2  :CE,FE,SB : VA :  !

 PARAMETER G(BCC_A2,CE:VA;0)  2.98140E+02  -1354.69-5.21501*T
   -7.7305867*T*LN(T)-.029098402*T**2
   +4.784299E-06*T**3-196303*T**(-1);  1.00000E+03  Y
   -12101.106+187.449688*T-37.6142*T*LN(T);  1.07200E+03  Y
   -11950.375+186.333811*T-37.4627992*T*LN(T)
   -5.7145E-05*T**2+2.348E-09*T**3-25897*T**(-1);  4.00000E+03  N REF:0 !
 PARAMETER TC(BCC_A2,FE:VA;0)  2.98150E+02  1043; 
   6.00000E+03   N REF:0 !
 PARAMETER BMAGN(BCC_A2,FE:VA;0)  2.98150E+02  2.22;  
     6.00000E+03   N REF:0 !
 PARAMETER G(BCC_A2,FE:VA;0)  2.98150E+02  +GHSERFE#;   
   6.00000E+03   N REF:0 !
 PARAMETER G(BCC_A2,SB:VA;0)  2.98140E+02  +19874-15.1*T+GHSERSB#; 
    2.00000E+03  N REF:0 !

 PARAMETER L(BCC_A2,CE,FE:VA;0)  2.98150E+02    +3736.6+35.2022*T;
    6.00000E+03   N REF:0 !
 PARAMETER L(BCC_A2,CE,SB:VA;0)  2.98140E+02    -200123.2+28.381*T;  
    2.00000E+03  N REF:0 !
 PARAMETER L(BCC_A2,FE,SB:VA;0)  2.98150E+02  +3512+17*T;   
   6000  N !
 PARAMETER L(BCC_A2,FE,SB:VA;1)  2.98150E+02  -29000; 
   6000 N !

$PARAMETER L(BCC_A2,CE,FE,SB:VA;0)  2.98150E+02  +9.5E+6-88.5*T;
$6000  N !
$PARAMETER L(BCC_A2,CE,FE,SB:VA;1)  2.98150E+02  +9.5E+6-88.5*T; 
$6000  N !
$PARAMETER L(BCC_A2,CE,FE,SB:VA;2)  2.98150E+02  +0+0*T;
$    6000  N !

 TYPE_DEFINITION ( GES A_P_D FCC_A1 MAGNETIC  -3.0    2.80000E-01 !
 PHASE FCC_A1  %(  2 1   1 !
 CONSTITUENT FCC_A1  :CE,FE,SB : VA :  !

 PARAMETER G(FCC_A1,CE:VA;0)  2.98140E+02  +GHSERCE#;  
    4.00000E+03  N  REF:0 !
 PARAMETER TC(FCC_A1,FE:VA;0)  2.98150E+02  -201;  
     6.00000E+03   N REF:0 !
 PARAMETER BMAGN(FCC_A1,FE:VA;0)  2.98150E+02  -2.1;  
    6.00000E+03   N   REF:0 !
 PARAMETER G(FCC_A1,FE:VA;0)  2.98150E+02  +GFEFCC#;   
    6.00000E+03   N REF:0 !
 PARAMETER G(FCC_A1,SB:VA;0)  2.98140E+02  +19874-13.7*T+GHSERSB#;  
    2.00000E+03  N REF:0 !

 PARAMETER L(FCC_A1,CE,FE:VA;0)  2.98150E+02  +59316.5;
    6.00000E+03   N REF:0 !
 PARAMETER L(FCC_A1,CE,SB:VA;0)  2.98140E+02    +8E5;  
    2.00000E+03  N REF:0 !
 PARAMETER L(FCC_A1,FE,SB:VA;0)  2.98150E+02  3950+10*T;  6000  N !
 PARAMETER L(FCC_A1,FE,SB:VA;1)  2.98150E+02  -15000;       6000  N !

$PARAMETER L(FCC_A1,CE,FE,SB:VA;0)  2.98150E+02  +9.5E+10+0*T; 
$6000  N !
$PARAMETER L(FCC_A1,CE,FE,SB:VA;1)  2.98150E+02  +2.54E+10+10*T; 
$6000  N !
$PARAMETER L(FCC_A1,CE,FE,SB:VA;2)  2.98150E+02  +0+0*T; 
$6000  N !


 PHASE RHOMBO_A7  %  1  1.0  !
 CONSTITUENT RHOMBO_A7  :SB :  !

 PARAMETER G(RHOMBO_A7,SB;0)  2.98140E+02  +GHSERSB#; 
  2.00000E+03  N REF:0 !


 PHASE DHCP  %  1  1.0  !
 CONSTITUENT DHCP  :CE :  !

 PARAMETER G(DHCP,CE;0)  2.98140E+02  -7283.058
   +84.66322*T-22.3664*T*LN(T)
   -.0067103*T**2-3.20773E-07*T**3-18117*T**(-1);
    1.00000E+03  Y
   -79801.045+659.8934*T-101.32248*T*LN(T)
   +.026046487*T**2-1.930297E-06*T**3
   +11531707*T**(-1);  2.00000E+03  Y
   -14321.178+190.803192*T-37.6978*T*LN(T); 
    4.00000E+03  N PURE4   !

 PHASE CE2FE17  %  2 0.1053  0.8947 !
 CONSTITUENT CE2FE17 :CE : FE :  !
    
 PARAMETER G(CE2FE17,CE:FE;0)  2.98150E+02 
   -10284.6158+6.268*T+0.1053*GHSERCE#+0.8947*GHSERFE#;
   6.00000E+03   N REF:0 !



 PHASE CEFE2  %  2 .3333  .6667  !
 CONSTITUENT CEFE2 :CE : FE :  !
 PARAMETER G(CEFE2,CE:FE;0)  2.98150E+02 
   -12141.6667+6.373*T+.3333*GHSERCE#+.6667*GHSERFE#;
   6.00000E+03   N REF:0 !


 PHASE CE2SB  %  2  0.6667  0.3333  !
 CONSTITUENT CE2SB  : CE :SB :  !
    
 PARAMETER G(CE2SB,CE:SB;0)  2.98140E+02 
  -88021.08+20.7657*T+0.6667*GHSERCE#+0.3333*GHSERSB#; 
   2.00000E+03  N REF:0 !


 PHASE CE4SB3  %  2  0.5714  0.4286 !
 CONSTITUENT CE4SB3  : CE :SB :  !

  PARAMETER G(CE4SB3,CE:SB;0)  2.98140E+02 
  -108398.05+25.5846*T+0.5714*GHSERCE#+0.4286*GHSERSB#; 
   2.00000E+03  N REF:0 !

  

 PHASE CESB  %  2  0.5  0.5  !
 CONSTITUENT CESB  : CE,FE :SB :  !

   
 PARAMETER G(CESB,CE:SB;0)  2.98140E+02 
  -123656.16+29.8859*T+0.5*GHSERCE#+0.5*GHSERSB#; 
   2.00000E+03  N REF:0 !

 PARAMETER G(CESB,FE:SB;0)  2.98140E+02 
  +4200+16.5*T+0.5*GHSERFE#+0.5*GHSERSB#; 
   2.00000E+03  N REF:0 !
 
  PARAMETER L(CESB,CE,FE:SB;0)  2.98140E+02 
   -17820+2.6*T; 6000  N !

 PHASE CESB2_H  %  2 0.333   0.667 !
    CONSTITUENT CESB2_H  :CE : SB :  !

 PARAMETER G(CESB2_H,CE:SB;0)  2.98140E+02  -86820.91+19.5125*T
    +0.333*GHSERCE#+0.667*GHSERSB#;  4.00000E+03  N REF:0 !




 PHASE CESB2_L  %  2 0.333   0.667 !
 CONSTITUENT CESB2_L  :CE,FE : SB :  !

   PARAMETER G(CESB2_L,CE:SB;0)  2.98140E+02  
   -86886.2+19.56818*T
   +0.333*GHSERCE#+0.667*GHSERSB#;  4.00000E+03  N REF:0 !

  
 PHASE FESB % 3 0.3333 0.3333 0.3333  !                                     
 CONSTITUENT FESB  :SB :CE,FE%,VA : CE%,FE,VA :  !

 PARAMETER G(FESB,SB:CE:CE;0) 2.98150E+02 +5000+0*T
    +0.3333*GHSERSB+0.6667*GHSERCE;    6000  N !

 PARAMETER G(FESB,SB:CE:FE;0) 2.98150E+02 +5000+0*T
    +0.3333*GHSERSB+0.3333*GHSERCE+0.3333*GHSERFE; 6000  N !

 PARAMETER G(FESB,SB:CE:VA;0) 2.98150E+02 +5000+0*T
   +0.3333*GHSERSB+0.3333*GHSERCE;    6000  N !

 PARAMETER G(FESB,SB:FE:CE;0) 2.98150E+02 +5000+0*T
   +0.3333*GHSERSB+0.3333*GHSERFE+0.3333*GHSERCE;    6000  N !

 PARAMETER G(FESB,SB:VA:CE;0) 2.98150E+02 +5000+0*T
   +0.3333*GHSERSB+0.3333*GHSERCE;    6000  N !

 PARAMETER G(FESB,SB:FE:VA;0) 2.98150E+02
    -7000+2.5*T+.33726*T*LN(T)
   -.0101350266*T**2+2.30276E-05*T**3+15000*T**(-1)
   +.3333*GHSERFE
   +.3333*GHSERSB_LOW;  6000  N !
 PARAMETER G(FESB,SB:FE:FE;0)  2.98150E+02
   -7000+4.01*T+.6667*GHSERFE+.3333*GHSERSB;  6000  N !

 PARAMETER G(FESB,SB:VA:VA;0) 2.98150E+02 
   +5522.55+1.3*T+.3333*GHSERSB;  6000  N !
 PARAMETER G(FESB,SB:VA:FE;0) 2.98150E+02
  -1500-3*T+.3333*GHSERSB+.3333*GHSERFE;  6000  N !


    
 PARAMETER L(FESB,SB:CE,FE:CE;0)  2.98150E+02  -22200-5*T;  
  6.00000E+03   N REF:0 !
 PARAMETER L(FESB,SB:CE,FE:FE;0)  2.98150E+02  -22200-5*T;  
   6.00000E+03   N REF:0 !
 PARAMETER L(FESB,SB:CE,FE:VA;0)  2.98150E+02  -22200-5*T;  
   6.00000E+03   N REF:0 !



 PARAMETER L(FESB,SB:CE,VA:CE;0)  2.98150E+02  0+0*T;  
   6.00000E+03   N REF:0 !
 PARAMETER L(FESB,SB:CE,VA:FE;0)  2.98150E+02  0+0*T;  
   6.00000E+03   N REF:0 !
 PARAMETER L(FESB,SB:CE,VA:VA;0)  2.98150E+02  0+0*T;  
   6.00000E+03   N REF:0 !


 PARAMETER L(FESB,SB:FE,VA:CE;0)  2.98150E+02  -6200-4*T;   
   6.00000E+03   N REF:0 !
 PARAMETER L(FESB,SB:FE,VA:FE;0)  2.98150E+02  -6200-4*T;   
   6.00000E+03   N REF:0 !  
 PARAMETER L(FESB,SB:FE,VA:VA;0)  2.98150E+02  -6200-4*T;   
   6.00000E+03   N REF:0 !


 PARAMETER L(FESB,SB:CE:CE,FE;0)  2.98150E+02 -22000-15*T;  
   6.00000E+03   N REF:0 !
 PARAMETER L(FESB,SB:FE:CE,FE;0)  2.98150E+02 -22000-15*T;  
  6.00000E+03   N REF:0 !
 PARAMETER L(FESB,SB:VA:CE,FE;0)  2.98150E+02 -22000-15*T;  
  6.00000E+03   N REF:0 !



 PARAMETER L(FESB,SB:CE:CE,VA;0)  2.98150E+02  0+0*T;  
   6.00000E+03   N REF:0 !
 PARAMETER L(FESB,SB:FE:CE,VA;0)  2.98150E+02  0+0*T;  
   6.00000E+03   N REF:0 !
 PARAMETER L(FESB,SB:VA:CE,VA;0)  2.98150E+02  0+0*T;  
   6.00000E+03   N REF:0 !

 PARAMETER L(FESB,SB:CE:FE,VA;0)  2.98150E+02  -3196.2-1.5573*T;   
  6.00000E+03   N REF:0 !
 PARAMETER L(FESB,SB:FE:FE,VA;0)  2.98150E+02  -3196.2-1.5573*T;   
  6.00000E+03   N REF:0 !
 PARAMETER L(FESB,SB:VA:FE,VA;0)  2.98150E+02  -3196.2-1.5573*T;   
   6.00000E+03   N REF:0 !


 
 PHASE FESB2 % 2 0.3333 0.6667 !                  
 CONSTITUENT FESB2  :CE,FE :SB :  !

 PARAMETER G(FESB2,FE:SB;0) 1.0
      -11751-16.346*T
      -0.00416007*T**2.5+3.0672E-07*T**4;  1.20E+02  Y
    -8408-49.72*T
     +7.20240460988454*T*LN(T)+0.0000221180797268422*T**2
     -48862.3285032292*T**(-1)+21E-21*T**7
    +.3333*GHSERFE#+.6667*GHSERSB#;   903.78  Y
    -8233.833006-52.67058292*T+7.603411438*T*LN(T)
    +.3333*GHSERFE#+.6667*GHSERSB#;   6000  N ! 
  
 
 

 PHASE CE2FE4SB5 % 3 0.1818 0.3636 0.4546 !                                     
 CONSTITUENT CE2FE4SB5  :CE :FE: SB :  !

 PARAMETER G(CE2FE4SB5,CE:FE:SB;0)  2.98150E+02
    -50438+8.1199*T+.0368328*T*LN(T)
    -0*T**7+0*T**(-9)
    +.1818*GHSERCE+.3636*GHSERFE+.4546*GHSERSB;  6000  N !




 PHASE CEFESB2 % 3 0.25 0.25 0.5  !                                     
 CONSTITUENT CEFESB2 :CE :FE: SB :  !

 PARAMETER G(CEFESB2,CE:FE:SB;0)  2.98150E+02
   -66251+12.026*T+.0528328*T*LN(T)
   -0*T**7+0*T**(-9)
   +.25*GHSERCE+.25*GHSERFE+.5*GHSERSB;  6000  N !




  PHASE CEFE4SB12 % 3 0.0588 0.2353 0.7059  !                                     
  CONSTITUENT CEFE4SB12 :CE :FE: SB :  !

  PARAMETER G(CEFE4SB12,CE:FE:SB;0)  2.98150E+02
   -25552+3.9833*T+.21328*T*LN(T)
   -0*T**7+5.78854E+23*T**(-9)
   +0.0588*GHSERCE+0.2353*GHSERFE+0.7059*GHSERSB;  6000  N !

$  PARAMETER G(CEFE4SB12,CE:FE:SB;0)  2.98150E+02
$   -25552+3.9833*T+.21328*T*LN(T)
$   -0*T**7
$   +0.0588*GHSERCE+0.2353*GHSERFE+0.7059*GHSERSB;  6000  N !

 LIST_OF_REFERENCES
 NUMBER  SOURCE
 ! 



