$$$$$$$$$$$$$$$$$$$$$$$$$$$$$$$$$$$$$$$$$$$$$$$$$$$$$$$$$$$$$$$$$$$$$$$$$$$$$
$          The thermodynamic parameters for the Al-C-Mn system              $
$                         By  Weisen Zheng                                  $
$$$$$$$$$$$$$$$$$$$$$$$$$$$$$$$$$$$$$$$$$$$$$$$$$$$$$$$$$$$$$$$$$$$$$$$$$$$$$ 

 ELEMENT /-   ELECTRON_GAS              0.0000E+00  0.0000E+00  0.0000E+00!
 ELEMENT VA   VACUUM                    0.0000E+00  0.0000E+00  0.0000E+00!
 ELEMENT AL   FCC_A1                    2.6982E+01  4.5400E+03  2.8300E+01!
 ELEMENT C    GRAPHITE                  1.2011E+01  1.0540E+03  5.7423E+00!
 ELEMENT MN   CBCC_A12                  5.4938E+01  4.9957E+03  3.2221E+01!
 
 SPECIES AL4C                        AL4C1!
 SPECIES MN4C                        C1MN4!

 FUNCTION GHSERAL   298.15 -7976.15+137.093038*T-24.3671976*T*LN(T)
     -.001884662*T**2-8.77664E-07*T**3+74092*T**(-1); 700 Y
      -11276.24+223.048446*T-38.5844296*T*LN(T)+.018531982*T**2
     -5.764227E-06*T**3+74092*T**(-1); 933.47 Y
      -11278.378+188.684153*T-31.748192*T*LN(T)-1.230524E+28*T**(-9); 2900 N 
     !
 FUNCTION GLIQAL    298.15 +11005.029-11.841867*T+GHSERAL#+7.9337E-20*T**7; 
     933.47 Y
      -795.996+177.430178*T-31.748192*T*LN(T); 2900 N !
 FUNCTION GHSERCC   298.15 -17368.441+170.73*T-24.3*T*LN(T)-4.723E-04*T**2
     +2562600*T**(-1)-2.643E+08*T**(-2)+1.2E+10*T**(-3); 6000 N !
 FUNCTION GHSERMN   298.15 -8115.28+130.059*T-23.4582*T*LN(T)-.00734768*T**2
     +69827*T**(-1); 1519 Y
      -28733.41+312.2648*T-48*T*LN(T)+1.656847E+30*T**(-9); 2000 N !
 FUNCTION GLIQMN    298.15 +17859.91-12.6208*T+GHSERMN#-4.41929E-21*T**7; 
     1519 Y
      -9993.9+299.036*T-48*T*LN(T); 2000 N !
 FUNCTION GFCCMN    298.15 -3439.3+131.884*T-24.5177*T*LN(T)-.006*T**2
     +69600*T**(-1); 1519 Y
      +2663.31-2.5984*T+GHSERMN#+2.205113E+30*T**(-9); 2000 N !
 FUNCTION LFALMN0   298.15 -69938+27.17958*T; 6000 N !
 FUNCTION LFALMN1   298.15 +8248.9; 6000 N !
 FUNCTION ZERO      298.15 +0.0; 6000 N !
 FUNCTION UKALMNC   298.15 -540-5.27*T; 6000 N !
 FUNCTION ALPHA2    298.15 +2000; 6000 N !
 FUNCTION GKAL3MNC  298.15 +3*UKALMNC#+ALPHA2#; 6000 N !
 FUNCTION GKAL2MN2  298.15 +4*UKALMNC#; 6000 N !
 FUNCTION ALPHA1    298.15 -4000; 6000 N !
 FUNCTION GKALMN3C  298.15 +3*UKALMNC#+ALPHA1#; 6000 N !
 FUNCTION SROKALMN  298.15 +3000; 6000 N !
 FUNCTION LKCMMMAM  298.15 -8000; 6000 N !
 FUNCTION UFALMN    298.15 -6980+3.51*T; 6000 N !
 FUNCTION GFAL3MN   298.15 +3*UFALMN#+1666-4.01*T; 6000 N !
 FUNCTION GFAL2MN2  298.15 +4*UFALMN#; 6000 N !
 FUNCTION GFALMN3   298.15 +3*UFALMN#+9792-8.79*T; 6000 N !
 FUNCTION SROFALMN  298.15 +UFALMN#; 6000 N !
 FUNCTION GAL4C3    298.15 -286001.52+1030.27302*T-161.709142*T*LN(T)
     -.01152276*T**2+2450000*T**(-1)+7E-07*T**3; 6000 N !
 FUNCTION GBCCAL    298.15 +GHSERAL#+10083-4.813*T; 2900 N !
 FUNCTION GBCCMN    298.15 -3235.3+127.85*T-23.7*T*LN(T)-.00744271*T**2
     +60000*T**(-1); 1519 Y
      +5544.58-4.5605*T+GHSERMN#-3.91695E+29*T**(-9); 2000 N !
 FUNCTION UN_ASS    298.15 +0.0; 6000 N !
 FUNCTION GB2ALMN2  298.15 -3045-1.72*T; 6000 N !
 FUNCTION GB22ALMN  298.15 -3045-1.72*T; 6000 N !
 FUNCTION LALMN0AL  298.15 -GB22ALMN#; 6000 N !
 FUNCTION LALMN0MN  298.15 -GB22ALMN#; 6000 N !
 FUNCTION GA12AL    298.15 +10083.4-4.813*T+GHSERAL#; 6000 N !
 FUNCTION GMN3C     298.15 +3*GHSERMN#+GHSERCC#-39644+3.04*T; 6000 N !
 FUNCTION GCUBAL    298.15 +10920.4-4.8116*T+GHSERAL#; 6000 N !
 FUNCTION GCUBMN    298.15 -5800.4+135.995*T-24.8785*T*LN(T)-.00583359*T**2
     +70269*T**(-1); 1519 Y
      +442.65-.9715*T+GHSERMN#+2.310723E+30*T**(-9); 2000 N !
 FUNCTION GHCPAL    298.15 +5481-1.8*T+GHSERAL#; 6000 N !
 FUNCTION GHCPMN    298.15 -4439.3+133.007*T-24.5177*T*LN(T)-.006*T**2
     +69600*T**(-1); 1519 Y
      +1663.31-1.4754*T+GHSERMN#+2.205113E+30*T**(-9); 2000 N !
 FUNCTION GMN23C6   298.15 +23*GHSERMN#+6*GHSERCC#-310473+53.86*T; 6000 N !
 FUNCTION GMN7C3    298.15 +7*GHSERMN#+3*GHSERCC#-106695+9.36*T; 6000 N !
 
 TYPE_DEFINITION % SEQ *!
 DEFINE_SYSTEM_DEFAULT ELEMENT 2 !
 DEFAULT_COMMAND DEF_SYS_ELEMENT VA /- !


 PHASE LIQUID:L %  1  1.0  !
    CONSTITUENT LIQUID:L :AL,C,MN :  !

   PARAMETER G(LIQUID,AL;0)               298.15 +GLIQAL#; 6000 N !
   PARAMETER G(LIQUID,C;0)                298.15 +GHSERCC#+117369-24.63*T; 
  6000 N !
   PARAMETER G(LIQUID,MN;0)               298.15 +GLIQMN#; 6000 N !
   PARAMETER G(LIQUID,AL,C;0)             298.15 +40861.02-33.21138*T; 6000 
  N !
   PARAMETER G(LIQUID,AL,C,MN;0)          298.15 -91870; 6000 N !
   PARAMETER G(LIQUID,AL,C,MN;1)          298.15 -439800; 6000 N  !
   PARAMETER G(LIQUID,AL,C,MN;2)          298.15 +4600+26.2*T; 6000 N  !
   PARAMETER G(LIQUID,AL,MN;0)            298.15 -70584.9+28.22693*T; 6000 N 
   !
   PARAMETER G(LIQUID,AL,MN;1)            298.15 -13293.5+9.82551*T; 6000 N 
   !
   PARAMETER G(LIQUID,C,MN;0)             298.15 -179183+43.8449*T; 6000 N 
   !
   PARAMETER G(LIQUID,C,MN;1)             298.15 +6313; 6000 N  !
   PARAMETER G(LIQUID,C,MN;2)             298.15 +23281; 6000 N  !


 TYPE_DEFINITION & GES A_P_D A1_KAPPA MAGNETIC  -3.0    2.80000E-01 !
 PHASE A1_KAPPA  %&  2 1   .25 !
    CONSTITUENT A1_KAPPA  :AL,MN : C,VA :  !

   PARAMETER G(A1_KAPPA,AL:C;0)           298.15 +GHSERAL#+.25*GHSERCC#
  +35250-3.1755*T; 6000 N  !
   PARAMETER G(A1_KAPPA,MN:C;0)           298.15 +GHSERMN#+.25*GHSERCC#+13950
  -13.6*T; 6000 N  !
   PARAMETER G(A1_KAPPA,AL:VA;0)          298.15 +GHSERAL#+100; 6000 N  !
   PARAMETER G(A1_KAPPA,MN:VA;0)          298.15 +GFCCMN#+100; 6000 N  !
   PARAMETER TC(A1_KAPPA,MN:VA;0)         298.15 -1620; 6000 N  !
   PARAMETER BMAGN(A1_KAPPA,MN:VA;0)      298.15 -1.86; 6000 N  !
   PARAMETER G(A1_KAPPA,AL,MN:C;0)        298.15 -132770+21.3*T; 6000 N  !
   PARAMETER G(A1_KAPPA,AL,MN:C;1)        298.15 +138790-97.65*T; 6000 N  !
   PARAMETER G(A1_KAPPA,AL,MN:C;2)        298.15 -30170+15.3*T; 6000 N  !
   PARAMETER G(A1_KAPPA,AL,MN:C,VA;0)     298.15 +2800; 6000 N  !
   PARAMETER G(A1_KAPPA,MN:C,VA;0)        298.15 +3150; 6000 N  !
   PARAMETER G(A1_KAPPA,AL,MN:VA;0)       298.15 +LFALMN0#; 6000 N  !
   PARAMETER G(A1_KAPPA,AL,MN:VA;1)       298.15 +LFALMN1#; 6000 N  !


 PHASE AL12MN  %  2 12   1 !
    CONSTITUENT AL12MN  :AL : MN :  !

   PARAMETER G(AL12MN,AL:MN;0)            298.15 +12*GHSERAL#+GHSERMN#
  -110389.5+36.79651*T; 6000 N  !


 PHASE AL4C3_D71  %  2 4   3 !
    CONSTITUENT AL4C3_D71  :AL : C :  !

   PARAMETER G(AL4C3_D71,AL:C;0)          298.15 +GAL4C3#; 6000 N  !


 PHASE AL4MN  %  2 4   1 !
    CONSTITUENT AL4MN  :AL : MN :  !

   PARAMETER G(AL4MN,AL:MN;0)             298.15 +4*GHSERAL#+GHSERMN#
  -109088.5+36.66471*T; 6000 N  !


 PHASE AL6MN  %  2 6   1 !
    CONSTITUENT AL6MN  :AL : MN :  !

   PARAMETER G(AL6MN,AL:MN;0)             298.15 +6*GHSERAL#+GHSERMN#
  -109090.5+35.21607*T; 6000 N  !


 PHASE AL8MN5  %  3 12   5   9 !
    CONSTITUENT AL8MN5  :AL : MN : AL,MN :  !

   PARAMETER G(AL8MN5,AL:MN:AL;0)         298.15 +21*GHSERAL#+5*GHSERMN#
  -199850.8-60.66355*T; 6000 N  !
   PARAMETER G(AL8MN5,AL:MN:MN;0)         298.15 +12*GHSERAL#+14*GHSERMN#
  -791383.6+289.47846*T; 6000 N  !
   PARAMETER G(AL8MN5,AL:MN:AL,MN;0)      298.15 -522188.3+244.34735*T; 6000 
  N  !
   PARAMETER G(AL8MN5,AL:MN:AL,MN;1)      298.15 +38015.3; 6000 N  !


 TYPE_DEFINITION ' GES A_P_D BCC_A2 MAGNETIC  -1.0    4.00000E-01 !
 PHASE BCC_A2  %'  2 1   3 !
    CONSTITUENT BCC_A2  :AL,MN : C,VA :  !

   PARAMETER G(BCC_A2,AL:C;0)             298.15 +GHSERAL#+3*GHSERCC#+100000
  +80*T; 6000 N  !
   PARAMETER G(BCC_A2,MN:C;0)             298.15 +GHSERMN#+3*GHSERCC#+10000
  +30*T; 6000 N  !
   PARAMETER G(BCC_A2,AL:VA;0)            298.15 +GBCCAL#; 6000 N  !
   PARAMETER G(BCC_A2,MN:VA;0)            298.15 +GBCCMN#; 6000 N  !
   PARAMETER TC(BCC_A2,MN:VA;0)           298.15 -580; 6000 N  !
   PARAMETER BMAGN(BCC_A2,MN:VA;0)        298.15 -.27; 6000 N  !
   PARAMETER G(BCC_A2,AL:C,VA;0)          298.15 +130000+14*T; 6000 N  !
   PARAMETER G(BCC_A2,AL,MN:VA;0)         298.15 -111336.2+44.48059*T; 6000 
  N  !
   PARAMETER G(BCC_A2,AL,MN:VA;1)         298.15 -68691.8+44.52653*T; 6000 N 
   !


$ THIS PHASE HAS A DISORDERED CONTRIBUTION FROM BCC_A2                  
 TYPE_DEFINITION ( GES AMEND_PHASE_DESCRIPTION BCC_B2 DIS_PART BCC_A2,,,!
 TYPE_DEFINITION ) GES A_P_D BCC_B2 MAGNETIC  -1.0    4.00000E-01 !
 PHASE BCC_B2  %()  3 .5   .5   3 !
    CONSTITUENT BCC_B2  :AL,MN : AL,MN : C,VA :  !

   PARAMETER G(BCC_B2,AL:AL:C;0)          298.15 +ZERO#; 6000 N  !
   PARAMETER G(BCC_B2,MN:AL:C;0)          298.15 +UN_ASS#; 6000 N  !
   PARAMETER G(BCC_B2,AL:MN:C;0)          298.15 +UN_ASS#; 6000 N  !
   PARAMETER G(BCC_B2,MN:MN:C;0)          298.15 +UN_ASS#; 6000 N  !
   PARAMETER G(BCC_B2,AL:AL:VA;0)         298.15 +ZERO#; 6000 N  !
   PARAMETER G(BCC_B2,MN:AL:VA;0)         298.15 +GB2ALMN2#; 6000 N  !
   PARAMETER G(BCC_B2,AL:MN:VA;0)         298.15 +GB2ALMN2#; 6000 N  !
   PARAMETER G(BCC_B2,MN:MN:VA;0)         298.15 +UN_ASS#; 6000 N  !
   PARAMETER G(BCC_B2,AL,MN:AL:VA;0)      298.15 +LALMN0AL#; 6000 N  !
   PARAMETER G(BCC_B2,AL:AL,MN:VA;0)      298.15 +LALMN0AL#; 6000 N  !
   PARAMETER G(BCC_B2,MN:AL,MN:VA;0)      298.15 +LALMN0MN#; 6000 N  !
   PARAMETER G(BCC_B2,AL,MN:MN:VA;0)      298.15 +LALMN0MN#; 6000 N  !


 TYPE_DEFINITION * GES A_P_D CBCC_A12 MAGNETIC  -3.0    2.80000E-01 !
 PHASE CBCC_A12  %*  2 1   1 !
    CONSTITUENT CBCC_A12  :AL,MN : C,VA :  !

   PARAMETER G(CBCC_A12,AL:C;0)           298.15 +GHSERAL#+GHSERCC#
  +100000; 6000 N !
   PARAMETER G(CBCC_A12,MN:C;0)           298.15 +GHSERMN#+GHSERCC#
  +27.46525*T; 6000 N  !
   PARAMETER G(CBCC_A12,AL:VA;0)          298.15 +GA12AL#; 6000 N  !
   PARAMETER G(CBCC_A12,MN:VA;0)          298.15 +GHSERMN#; 6000 N  !
   PARAMETER TC(CBCC_A12,MN:VA;0)         298.15 -285; 6000 N  !
   PARAMETER BMAGN(CBCC_A12,MN:VA;0)      298.15 -.66; 6000 N  !
   PARAMETER G(CBCC_A12,MN:C,VA;0)        298.15 -52204; 6000 N  !
   PARAMETER G(CBCC_A12,AL,MN:VA;0)       298.15 -63000+21*T; 6000 N  !


 TYPE_DEFINITION + GES A_P_D CEMENTITE_D011 MAGNETIC  -3.0    2.80000E-01 !
 PHASE CEMENTITE_D011  %+  2 3   1 !
    CONSTITUENT CEMENTITE_D011  :MN : C :  !

   PARAMETER G(CEMENTITE_D011,MN:C;0)     298.15 +GMN3C#; 6000 N  !


 PHASE CUB_A13  %  2 1   1 !
    CONSTITUENT CUB_A13  :AL,MN : C,VA :  !

   PARAMETER G(CUB_A13,AL:C;0)            298.15 +GHSERAL#+GHSERCC#+100000;
  6000 N !
   PARAMETER G(CUB_A13,MN:C;0)            298.15 +GHSERMN#+GHSERCC#+2607; 
  6000 N  !
   PARAMETER G(CUB_A13,AL:VA;0)           298.15 +GCUBAL#; 6000 N  !
   PARAMETER G(CUB_A13,MN:VA;0)           298.15 +GCUBMN#; 6000 N  !
   PARAMETER G(CUB_A13,MN:C,VA;0)         298.15 -10175; 6000 N  !
   PARAMETER G(CUB_A13,AL,MN:VA;0)        298.15 -118512.3+52.73979*T; 6000 
  N  !
   PARAMETER G(CUB_A13,AL,MN:VA;1)        298.15 -3174.9; 6000 N  !


 TYPE_DEFINITION - GES A_P_D FCC_A1 MAGNETIC  -3.0    2.80000E-01 !
 PHASE FCC_A1  %-  2 1   1 !
    CONSTITUENT FCC_A1  :AL,MN : C,VA :  !

   PARAMETER G(FCC_A1,AL:C;0)             298.15 +GHSERAL#+GHSERCC#+81000; 
  6000 N  !
   PARAMETER G(FCC_A1,MN:C;0)             298.15 +GHSERMN#+GHSERCC#+13.659*T;
  6000 N  !
   PARAMETER G(FCC_A1,AL:VA;0)            298.15 +GHSERAL#; 6000 N  !
   PARAMETER G(FCC_A1,MN:VA;0)            298.15 +GFCCMN#; 6000 N  !
   PARAMETER TC(FCC_A1,MN:VA;0)           298.15 -1620; 6000 N  !
   PARAMETER BMAGN(FCC_A1,MN:VA;0)        298.15 -1.86; 6000 N  !
   PARAMETER G(FCC_A1,AL,MN:C;0)          298.15 +10000; 6000 N  !
   PARAMETER G(FCC_A1,AL,MN:C;1)          298.15 12780-48*T; 6000 N  !
   PARAMETER G(FCC_A1,AL,MN:C,VA;0)       298.15 +4490-69*T; 6000 N  !
   PARAMETER G(FCC_A1,AL:C,VA;0)          298.15 -80000+8*T; 6000 N  !
   PARAMETER G(FCC_A1,MN:C,VA;0)          298.15 -41333; 6000 N  !
   PARAMETER G(FCC_A1,AL,MN:VA;0)         298.15 -69938+27.17958*T; 6000 N !
   PARAMETER G(FCC_A1,AL,MN:VA;1)         298.15 +8248.9; 6000 N  !

   
  
$ THIS PHASE HAS A DISORDERED CONTRIBUTION FROM FCC_A1                  
 TYPE_DEFINITION ~ GES AMEND_PHASE_DESCRIPTION FCC_4SL DIS_PART FCC_A1,,,!
 TYPE_DEFINITION @ GES A_P_D FCC_4SL MAGNETIC  -3.0    2.80000E-01 !
 PHASE FCC_4SL:F %~@  5 .25   .25   .25   .25   1 !
    CONSTITUENT FCC_4SL:F :AL,MN : AL,MN : AL,MN : AL,MN : C,VA :  !

   PARAMETER G(FCC_4SL,AL:AL:AL:AL:C;0) 298.15 +0; 6000 N !
   PARAMETER G(FCC_4SL,AL:AL:AL:MN:C;0) 298.15 +0; 6000 N !
   PARAMETER G(FCC_4SL,AL:AL:MN:MN:C;0) 298.15 +0; 6000 N !
   PARAMETER G(FCC_4SL,AL:MN:MN:MN:C;0) 298.15 +0; 6000 N !
   PARAMETER G(FCC_4SL,MN:MN:MN:MN:C;0) 298.15 +0; 6000 N !
   PARAMETER G(FCC_4SL,AL:AL:AL:AL:VA;0)  298.15 +ZERO#; 6000 N !
   PARAMETER G(FCC_4SL,AL:AL:AL:MN:VA;0)  298.15 +GFAL3MN#; 6000 N  !
   PARAMETER G(FCC_4SL,AL:AL:MN:MN:VA;0)  298.15 +GFAL2MN2#; 6000 N  !
   PARAMETER G(FCC_4SL,AL:MN:MN:MN:VA;0)  298.15 +GFALMN3#; 6000 N  !
   PARAMETER G(FCC_4SL,MN:MN:MN:MN:VA;0)  298.15 +ZERO#; 6000 N !
   PARAMETER G(FCC_4SL,AL,MN:AL,MN:*:*:VA;0) 298.15 +SROFALMN#; 6000 N !
   

 PHASE GRAPHITE_A9  %  1  1.0  !
    CONSTITUENT GRAPHITE_A9  :C :  !

   PARAMETER G(GRAPHITE_A9,C;0)           298.15 +GHSERCC#; 6000 N  !


 TYPE_DEFINITION . GES A_P_D HCP_A3 MAGNETIC  -3.0    2.80000E-01 !
 PHASE HCP_A3  %.  2 1   .5 !
    CONSTITUENT HCP_A3  :AL,MN : C,VA :  !

   PARAMETER G(HCP_A3,AL:C;0)             298.15 +GHSERAL#+.5*GHSERCC#
  +1000+0.22*T; 6000 N  !
   PARAMETER G(HCP_A3,MN:C;0)             298.15 +GHSERMN#+.5*GHSERCC#-9000
  -1.0651*T; 6000 N  !
   PARAMETER G(HCP_A3,AL:VA;0)            298.15 +GHCPAL#; 6000 N  !
   PARAMETER G(HCP_A3,MN:VA;0)            298.15 +GHCPMN#; 6000 N  !
   PARAMETER TC(HCP_A3,MN:VA;0)           298.15 -1620; 6000 N  !
   PARAMETER BMAGN(HCP_A3,MN:VA;0)        298.15 -1.86; 6000 N  !
   PARAMETER G(HCP_A3,AL,MN:C;0)          298.15 -36250+28*T; 6000 N  !
   PARAMETER G(HCP_A3,AL,MN:C;1)          298.15 +89934-54.5*T; 6000 N  !
   PARAMETER G(HCP_A3,AL:C,VA;0)          298.15 -29560+8*T; 6000 N  !
   PARAMETER G(HCP_A3,AL:C,VA;1)          298.15 -9740; 6000 N  !
   PARAMETER G(HCP_A3,AL:C,VA;2)          298.15 +14000; 6000 N  !
   PARAMETER G(HCP_A3,MN:C,VA;0)          298.15 -5006; 6000 N  !
   PARAMETER G(HCP_A3,AL,MN:VA;0)         298.15 -95264.1+33.09659*T; 6000 N !
   PARAMETER G(HCP_A3,AL,MN:VA;1)         298.15 -56880.6+43.14119*T; 6000 N !
   PARAMETER G(HCP_A3,AL,MN:VA;2)         298.15 +14430.2; 6000 N  !


 PHASE HTAL11MN4  %  2 29   10 !
    CONSTITUENT HTAL11MN4  :AL,MN : MN :  !

   PARAMETER G(HTAL11MN4,AL:MN;0)         298.15 +29*GHSERAL#+10*GHSERMN#
  -744944.7+130.35865*T; 6000 N  !
   PARAMETER G(HTAL11MN4,MN:MN;0)         298.15 +39*GHSERMN#+195000; 6000 N !
   PARAMETER G(HTAL11MN4,AL,MN:MN;0)      298.15 -664033.5; 6000 N  !


$ THIS PHASE HAS A DISORDERED CONTRIBUTION FROM A1_KAPPA                
 TYPE_DEFINITION / GES AMEND_PHASE_DESCRIPTION KAPPA DIS_PART A1_KAPPA,,,!
 TYPE_DEFINITION 0 GES A_P_D KAPPA MAGNETIC  -3.0    2.80000E-01 !
 PHASE KAPPA  %/0  5 .25   .25   .25   .25   .25 !
    CONSTITUENT KAPPA  :AL,MN : AL,MN : AL,MN : AL,MN : C,VA :  !

   PARAMETER G(KAPPA,AL:AL:AL:AL:C;0)     298.15 +ZERO#; 6000 N  !
   PARAMETER G(KAPPA,MN:AL:AL:AL:C;0)     298.15 +GKAL3MNC#; 6000 N  !
   PARAMETER G(KAPPA,AL:MN:AL:AL:C;0)     298.15 +GKAL3MNC#; 6000 N  !
   PARAMETER G(KAPPA,MN:MN:AL:AL:C;0)     298.15 +GKAL2MN2#; 6000 N  !
   PARAMETER G(KAPPA,AL:AL:MN:AL:C;0)     298.15 +GKAL3MNC#; 6000 N  !
   PARAMETER G(KAPPA,MN:AL:MN:AL:C;0)     298.15 +GKAL2MN2#; 6000 N  !
   PARAMETER G(KAPPA,AL:MN:MN:AL:C;0)     298.15 +GKAL2MN2#; 6000 N  !
   PARAMETER G(KAPPA,MN:MN:MN:AL:C;0)     298.15 +GKALMN3C#; 6000 N  !
   PARAMETER G(KAPPA,AL:AL:AL:MN:C;0)     298.15 +GKAL3MNC#; 6000 N  !
   PARAMETER G(KAPPA,MN:AL:AL:MN:C;0)     298.15 +GKAL2MN2#; 6000 N  !
   PARAMETER G(KAPPA,AL:MN:AL:MN:C;0)     298.15 +GKAL2MN2#; 6000 N  !
   PARAMETER G(KAPPA,MN:MN:AL:MN:C;0)     298.15 +GKALMN3C#; 6000 N  !
   PARAMETER G(KAPPA,AL:AL:MN:MN:C;0)     298.15 +GKAL2MN2#; 6000 N  !
   PARAMETER G(KAPPA,MN:AL:MN:MN:C;0)     298.15 +GKALMN3C#; 6000 N  !
   PARAMETER G(KAPPA,AL:MN:MN:MN:C;0)     298.15 +GKALMN3C#; 6000 N  !
   PARAMETER G(KAPPA,MN:MN:MN:MN:C;0)     298.15 +ZERO#; 6000 N  !
   PARAMETER G(KAPPA,AL:AL:AL:AL:VA;0)    298.15 +ZERO#; 6000 N  !
   PARAMETER G(KAPPA,MN:AL:AL:AL:VA;0)    298.15 +GFAL3MN#; 6000 N  !
   PARAMETER G(KAPPA,AL:MN:AL:AL:VA;0)    298.15 +GFAL3MN#; 6000 N  !
   PARAMETER G(KAPPA,MN:MN:AL:AL:VA;0)    298.15 +GFAL2MN2#; 6000 N  !
   PARAMETER G(KAPPA,AL:AL:MN:AL:VA;0)    298.15 +GFAL3MN#; 6000 N  !
   PARAMETER G(KAPPA,MN:AL:MN:AL:VA;0)    298.15 +GFAL2MN2#; 6000 N  !
   PARAMETER G(KAPPA,AL:MN:MN:AL:VA;0)    298.15 +GFAL2MN2#; 6000 N  !
   PARAMETER G(KAPPA,MN:MN:MN:AL:VA;0)    298.15 +GFALMN3#; 6000 N  !
   PARAMETER G(KAPPA,AL:AL:AL:MN:VA;0)    298.15 +GFAL3MN#; 6000 N  !
   PARAMETER G(KAPPA,MN:AL:AL:MN:VA;0)    298.15 +GFAL2MN2#; 6000 N  !
   PARAMETER G(KAPPA,AL:MN:AL:MN:VA;0)    298.15 +GFAL2MN2#; 6000 N  !
   PARAMETER G(KAPPA,MN:MN:AL:MN:VA;0)    298.15 +GFALMN3#; 6000 N  !
   PARAMETER G(KAPPA,AL:AL:MN:MN:VA;0)    298.15 +GFAL2MN2#; 6000 N  !
   PARAMETER G(KAPPA,MN:AL:MN:MN:VA;0)    298.15 +GFALMN3#; 6000 N  !
   PARAMETER G(KAPPA,AL:MN:MN:MN:VA;0)    298.15 +GFALMN3#; 6000 N  !
   PARAMETER G(KAPPA,MN:MN:MN:MN:VA;0)    298.15 +ZERO#; 6000 N  !
   PARAMETER G(KAPPA,MN:MN:MN:AL,MN:C;0)  298.15 +LKCMMMAM#; 6000 N  !
   PARAMETER G(KAPPA,MN:MN:AL,MN:MN:C;0)  298.15 +LKCMMMAM#; 6000 N  !
   PARAMETER G(KAPPA,MN:AL,MN:MN:MN:C;0)  298.15 +LKCMMMAM#; 6000 N  !
   PARAMETER G(KAPPA,AL,MN:MN:MN:MN:C;0)  298.15 +LKCMMMAM#; 6000 N  !
   PARAMETER G(KAPPA,AL,MN:AL,MN:*:*:C;0) 298.15 +SROKALMN#; 6000 N  !
   PARAMETER G(KAPPA,*:*:AL,MN:AL,MN:C;0) 298.15 +SROKALMN#; 6000 N  !
   PARAMETER G(KAPPA,AL,MN:*:AL,MN:*:C;0) 298.15 +SROKALMN#; 6000 N  !
   PARAMETER G(KAPPA,AL,MN:*:*:AL,MN:C;0) 298.15 +SROKALMN#; 6000 N  !
   PARAMETER G(KAPPA,*:AL,MN:AL,MN:*:C;0) 298.15 +SROKALMN#; 6000 N  !
   PARAMETER G(KAPPA,*:AL,MN:*:AL,MN:C;0) 298.15 +SROKALMN#; 6000 N  !
   PARAMETER G(KAPPA,AL,MN:AL,MN:*:*:VA;0) 298.15 +SROFALMN#; 6000 N  !
   PARAMETER G(KAPPA,*:*:AL,MN:AL,MN:VA;0) 298.15 +SROFALMN#; 6000 N  !
   PARAMETER G(KAPPA,AL,MN:*:AL,MN:*:VA;0) 298.15 +SROFALMN#; 6000 N  !
   PARAMETER G(KAPPA,AL,MN:*:*:AL,MN:VA;0) 298.15 +SROFALMN#; 6000 N  !
   PARAMETER G(KAPPA,*:AL,MN:AL,MN:*:VA;0) 298.15 +SROFALMN#; 6000 N  !
   PARAMETER G(KAPPA,*:AL,MN:*:AL,MN:VA;0) 298.15 +SROFALMN#; 6000 N  !


 PHASE LTAL11MN4  %  2 11   4 !
    CONSTITUENT LTAL11MN4  :AL : MN :  !

   PARAMETER G(LTAL11MN4,AL:MN;0)         298.15 +11*GHSERAL#+4*GHSERMN#
  -350549.7+97.89918*T; 6000 N  !


 PHASE M23C6_D84  %  3 20   3   6 !
    CONSTITUENT M23C6_D84  :MN : MN : C :  !

   PARAMETER G(M23C6_D84,MN:MN:C;0)       298.15 +GMN23C6#; 6000 N  !


 PHASE M5C2  %  2 5   2 !
    CONSTITUENT M5C2  :MN : C :  !

   PARAMETER G(M5C2,MN:C;0)               298.15 +5*GHSERMN#+2*GHSERCC#
  -73954+6.36*T; 6000 N  !


 PHASE M7C3_D101  %  2 7   3 !
    CONSTITUENT M7C3_D101  :MN : C :  !

   PARAMETER G(M7C3_D101,MN:C;0)          298.15 +GMN7C3#; 6000 N  !


 PHASE R_AL4MN  %  2 461   107 !
    CONSTITUENT R_AL4MN  :AL : MN :  !

   PARAMETER G(R_AL4MN,AL:MN;0)           298.15 +461*GHSERAL#+107*GHSERMN#
  -11670275.3+3890.09178*T; 6000 N  !


 LIST_OF_REFERENCES
 NUMBER  SOURCE
  ! 
 
