$---------------------------------------------------------------
$ database Sb-Sn-Zn from Ondrej Zobac
$------------------------------------------------------------

ELEMENT /-   ELECTRON_GAS              0.0000E+00  0.0000E+00  0.0000E+00 !
ELEMENT SB   RHOMBO_A7                 1.2175E+02  5.8702E+03  4.5522E+01 !
ELEMENT SN   BCT_A5                    1.1871E+02  6.3220E+03  5.1195E+01 !
ELEMENT ZN   HCP_ZN                    6.5390E+01  5.6568E+03  4.1631E+01 !
Element VA   VACUUM                             0           0           0 !



Function GHSERSN 1.00000E+02  
     -7958.517+122.765451*T-25.858*T*LN(T)
     +5.1185E-04*T**2-3.192767E-06*T**3+18440*T**(-1);  2.50000E+02  Y
      -5855.135+65.443315*T-15.961*T*LN(T)-.0188702*T**2+3.121167E-06*T**3
     -61960*T**(-1);  5.05080E+02  Y
      +2524.724+4.005269*T-8.2590486*T*LN(T)-.016814429*T**2
     +2.623131E-06*T**3-1081244*T**(-1)-1.2307E+25*T**(-9);  8.00000E+02  Y
      -8256.959+138.99688*T-28.4512*T*LN(T)-1.2307E+25*T**(-9);  
     3.00000E+03 N !

Function GHSERSB
     298.15 
     -9242.858+156.154689*T-30.5130752*T*LN(T)
     +0.007748768*T**2-3.003415E-06*T**3+100625*T**(-1);  9.03780E+02  Y
      -11738.83+169.485872*T-31.38*T*LN(T)+1.616849E+27*T**(-9);
     2.00000E+03  N !

FUNCTION GHSERZN 2.98150E+02  -7285.787+118.470069*T-23.701314*T*LN(T)
     -.001712034*T**2-1.264963E-06*T**3;  6.92680E+02  Y
      -11070.559+172.34566*T-31.38*T*LN(T)+4.70514E+26*T**(-9);  1.70000E+03
      N !
FUNCTION UN_ASS 298.15 0; 300 N !

TYPE_DEFINITION % SEQ *!
DEFINE_SYSTEM_DEFAULT ELEMENT 2 !
DEFAULT_COMMAND DEF_SYS_ELEMENT VA /- !


PHASE BCT_A5  %  1  1.0  !
CONSTITUENT BCT_A5  :SB,SN,ZN : !
PARAMETER G(BCT_A5,SB;0)  2.98150E+02 +3757.142+148.154689*T
  -30.5130752*T*LN(T)+.007748768*T**2-3.003415E-06*T**3+100625*T**(-1);
  9.03780E+02 Y
   +1261.17+161.485872*T-31.38*T*LN(T)+1.616849E+27*T**(-9);
  2.00000E+03 N !
PARAMETER G(BCT_A5,SN;0)  1.00000E+02  -7958.517+122.765451*T
  -25.858*T*LN(T)+5.1185E-04*T**2-3.192767E-06*T**3+18440*T**(-1);
  2.50000E+02 Y
   -5855.135+65.443315*T-15.961*T*LN(T)-.0188702*T**2+3.121167E-06*T**3
  -61960*T**(-1);  5.05080E+02 Y
   +2524.724+4.005269*T-8.2590486*T*LN(T)-0.016814429*T**2+2.623131E-06*T**3
  -1081244*T**(-1)-1.2307E+25*T**(-9);  8.00000E+02  Y
   -8256.959+138.99688*T-28.4512*T*LN(T)-1.2307E+25*T**(-9);  
  3.00000E+03  N !
PARAMETER G(BCT_A5,ZN;0)  2.98150E+02  -4398.827+115.959669*T
  -23.701314*T*LN(T)-.001712034*T**2-1.264963E-06*T**3;  6.92680E+02  Y
   -8183.599+169.83526*T-31.38*T*LN(T)+4.70514E+26*T**(-9); 
   1.70000E+03 N !

PARAMETER G(BCT_A5,SB,SN;0)            298.15 +3659.116-21.38*T; 3000 N 
REF0 !
PARAMETER G(BCT_A5,SB,SN;1)            298.15 -21860.53+44.487*T; 3000 N 
REF0 !

PARAMETER G(BCT_A5,SB,ZN;0)  2.98150E+02  +80*T;  1.00000E+03  N !
PARAMETER G(BCT_A5,SN,ZN;0)  2.98150E+02  +6514.76+25.70957*T;
  6.00000E+03   N !

PHASE DIAMOND_A4  %  1  1.0  !
CONSTITUENT DIAMOND_A4  :SN,ZN :  !
PARAMETER G(DIAMOND_A4,SN;0)  1.00000E+02 -9579.608+114.007785*T
  -22.972*T*LN(T)-.00813975*T**2+2.7288E-06*T**3+25615*T**(-1);
  2.98150E+02 Y
   -9063.001+104.84654*T-21.5750771*T*LN(T)-.008575282*T**2
  +1.784447E-06*T**3-2544*T**(-1);  8.00000E+02  Y
   -10909.351+147.396535*T-28.4512*T*LN(T);  3.00000E+03  N !
   PARAMETER G(DIAMOND_A4,ZN;0)  2.98150E+02  -7285.787+148.470069*T
  -23.701314*T*LN(T)-.001712034*T**2-1.264963E-06*T**3;  6.92680E+02  Y
   -11070.559+202.34566*T-31.38*T*LN(T)+4.70514E+26*T**(-9);  
  1.70000E+03  N !
PARAMETER G(DIAMOND_A4,SN,ZN;0)  2.98150E+02  30000;  1.00000E+03  N !

TYPE_DEFINITION ' GES A_P_D FCC_A1 MAGNETIC  -3.0    2.80000E-01 !
PHASE FCC_A1  %'  2 1   1 !
CONSTITUENT FCC_A1  :SB,SN,ZN : VA :  !
PARAMETER G(FCC_A1,SB:VA;0)  2.98150E+02  +10631.142+142.454689*T
  -30.5130752*T*LN(T)+.007748768*T**2-3.003415E-06*T**3+100625*T**(-1);
  9.03780E+02  Y
   +8135.17+155.785872*T-31.38*T*LN(T)+1.616849E+27*T**(-9);
2.00000E+03  N !
PARAMETER G(FCC_A1,SN:VA;0)  2.98150E+02  -345.135+56.983315*T
  -15.961*T*LN(T)-.0188702*T**2+3.121167E-06*T**3-61960*T**(-1);
  5.05080E+02  Y
   +8034.724-4.454731*T-8.2590486*T*LN(T)-.016814429*T**2+2.623131E-06*T**3
  -1081244*T**(-1)-1.2307E+25*T**(-9);  8.00000E+02  Y
   -2746.959+130.53688*T-28.4512*T*LN(T)-1.2307E+25*T**(-9);
   3.00000E+03  N !
PARAMETER G(FCC_A1,ZN:VA;0)  2.98150E+02  -4315.967+116.900389*T
  -23.701314*T*LN(T)-.001712034*T**2-1.264963E-06*T**3;  6.92680E+02  Y
   -8100.739+170.77598*T-31.38*T*LN(T)+4.70514E+26*T**(-9);
1.70000E+03  N !
   PARAMETER G(FCC_A1,SB,SN:VA;0)  2.98150E+02  -3000;  1.00000E+03  N !
   PARAMETER G(FCC_A1,SB,ZN:VA;0)  2.98150E+02  +80*T;  1.00000E+03  N !
   PARAMETER G(FCC_A1,SN,ZN:VA;0)  2.98150E+02  +33433.94-11.14466*T;
  6.00000E+03   N !

PHASE HCP_ZN  %  2 1   .5 !
CONSTITUENT HCP_ZN  :SB,SN,ZN% : VA :  !
PARAMETER G(HCP_ZN,SB:VA;0)  2.98150E+02  +10631.142+143.154689*T
  -30.5130752*T*LN(T)+.007748768*T**2-3.003415E-06*T**3+100625*T**(-1);
  9.03780E+02  Y
   +8135.17+156.485872*T-31.38*T*LN(T)+1.616849E+27*T**(-9);
  2.00000E+03  N !
PARAMETER G(HCP_ZN,SN:VA;0)  2.98150E+02  -1855.135+57.797315*T
  -15.961*T*LN(T)-.0188702*T**2+3.121167E-06*T**3-61960*T**(-1);
  5.05080E+02  Y
   +6524.724-3.640731*T-8.2590486*T*LN(T)-.016814429*T**2+2.623131E-06*T**3
  -1081244*T**(-1)-1.2307E+25*T**(-9);  8.00000E+02  Y
   -4256.959+131.35088*T-28.4512*T*LN(T)-1.2307E+25*T**(-9);
  3.00000E+03 N !
PARAMETER G(HCP_ZN,ZN:VA;0)  2.98150E+02  -7285.787+118.470069*T
  -23.701314*T*LN(T)-.001712034*T**2-1.264963E-06*T**3;  6.92680E+02  Y
   -11070.559+172.34566*T-31.38*T*LN(T)+4.70514E+26*T**(-9);
  1.70000E+03 N !
PARAMETER G(HCP_ZN,SN,ZN:VA;0)  2.98150E+02  +33433.94-11.14466*T;   
  6.00000E+03 N !

PHASE RHOMBO_A7  %  1  1.0  !
CONSTITUENT RHOMBO_A7  :SB,SN,ZN :  !
PARAMETER G(RHOMBO_A7,SB;0)  2.98150E+02  -9242.858+156.154689*T
  -30.5130752*T*LN(T)+.007748768*T**2-3.003415E-06*T**3+100625*T**(-1);
  9.03780E+02  Y
   -11738.83+169.485872*T-31.38*T*LN(T)+1.616849E+27*T**(-9);
  2.00000E+03 N !
PARAMETER G(RHOMBO_A7,SN;0)  1.00000E+02  -5923.517+122.765451*T
  -25.858*T*LN(T)+5.1185E-04*T**2-3.192767E-06*T**3+18440*T**(-1);
  2.50000E+02  Y
   -3820.135+65.443315*T-15.961*T*LN(T)-.0188702*T**2+3.121167E-06*T**3
  -61960*T**(-1);  5.05080E+02  Y
   +4559.724+4.005269*T-8.2590486*T*LN(T)-.016814429*T**2+2.623131E-06*T**3
  -1081244*T**(-1)-1.2307E+25*T**(-9);  8.00000E+02  Y
   -6221.959+138.99688*T-28.4512*T*LN(T)-1.2307E+25*T**(-9);
   3.00000E+03  N !
PARAMETER G(RHOMBO_A7,ZN;0)  2.98150E+02  -4985.787+129.970069*T
  -23.701314*T*LN(T)-.001712034*T**2-1.264963E-06*T**3;  6.92680E+02  Y
   -8770.559+183.84566*T-31.38*T*LN(T)+4.70514E+26*T**(-9);
  1.70000E+03  N !

 PARAMETER G(RHOMBO_A7,SB,SN;0)  298.15 +4000-5.7323*T; 3000 N REF0 !
PARAMETER G(RHOMBO_A7,SB,ZN;0) 2.98150E+02  0.0 ; 3.00000E+03 N !
PARAMETER G(RHOMBO_A7,SN,ZN;0) 2.98150E+02  +33433.94-11.14466*T;  
  1.00000E+03  N !


 PHASE SB2SN3  %  2 2   3 !
    CONSTITUENT SB2SN3  :SB : SN :  !

   PARAMETER G(SB2SN3,SB:SN;0)            298.15 -232.588-31.032*T
  +2*GHSERSB#+3*GHSERSN#; 3000 N REF0 !


 PHASE SBSN  %  2 1   1 !
    CONSTITUENT SBSN  :SB%,SN : SB,SN% :  !

   PARAMETER G(SBSN,SB:SB;0)              298.15 +2*GHSERSB#+6227.48; 3000 N 
  REF0 !
   PARAMETER G(SBSN,SN:SB;0)              298.15 -6035.69-2.478*T+GHSERSN#
  +GHSERSB#; 3000 N REF0 !
   PARAMETER G(SBSN,SB:SN;0)              298.15 -6035.69-2.478*T+GHSERSB#
  +GHSERSN#; 3000 N REF0 !
   PARAMETER G(SBSN,SN:SN;0)              298.15 +2*GHSERSN#+7463.66; 3000 N 
  REF0 !
   PARAMETER G(SBSN,SB,SN:SB;0)           298.15 -4300.502+6.638*T; 3000 N 
  REF0 !
   PARAMETER G(SBSN,SB:SB,SN;0)           298.15 -4300.502+6.638*T; 3000 N 
  REF0 !
   PARAMETER G(SBSN,SN:SB,SN;0)           298.15 -1600.725+6.599*T; 3000 N 
  REF0 !
   PARAMETER G(SBSN,SB,SN:SN;0)           298.15 -1600.725+6.599*T; 3000 N 
  REF0 !

PHASE LIQUID  %  1  1.0  !
CONSTITUENT LIQUID  :SB,SN,ZN :  !
PARAMETER G(LIQUID,SB;0)  2.98150E+02  +10579.47+134.231525*T
  -30.5130752*T*LN(T)+.007748768*T**2-3.003415E-06*T**3
  +100625*T**(-1)-1.74847E-20*T**7;  9.03780E+02  Y
   +8175.359+147.455986*T-31.38*T*LN(T);  2.00000E+03  N !
PARAMETER G(LIQUID,SN;0)  1.00000E+02  -855.425+108.677684*T
  -25.858*T*LN(T)+5.1185E-04*T**2-3.192767E-06*T**3+18440*T**(-1)
  +1.47031E-18*T**7;  2.50000E+02  Y
   +1247.957+51.355548*T-15.961*T*LN(T)-.0188702*T**2+3.121167E-06*T**3
  -61960*T**(-1)+1.47031E-18*T**7;  5.05080E+02  Y
   +9496.31-9.809114*T-8.2590486*T*LN(T)-.016814429*T**2+2.623131E-06*T**3
  -1081244*T**(-1);  8.00000E+02  Y
   -1285.372+125.182498*T-28.4512*T*LN(T);  3.00000E+03  N !
PARAMETER G(LIQUID,ZN;0)  2.98150E+02  -128.574+108.177079*T
  -23.701314*T*LN(T)-.001712034*T**2-1.264963E-06*T**3-3.58958E-19*T**7;  
  6.92680E+02  Y
   -3620.391+161.608594*T-31.38*T*LN(T);  1.70000E+03  N !

PARAMETER G(LIQUID,SB,SN;0)       298.15 -5695.1-1.709*T; 3000 N 
REF0 !
PARAMETER G(LIQUID,SB,SN;1)            298.15 +782.6; 3000 N REF0 !
PARAMETER G(LIQUID,SB,SN;2)            298.15 +1840.9; 3000 N REF0 !

PARAMETER G(LIQUID,SB,ZN;0)  2.98150E+02  -11951-1.1174*T;   
  6.00000E+03   N !
PARAMETER G(LIQUID,SB,ZN;1)  2.98150E+02  -3325.6+1.0004*T;   
  6.00000E+03   N REF0 !
PARAMETER G(LIQUID,SB,ZN;2)  2.98150E+02  +29432-23.6303*T;   
  6.00000E+03   N REF0 !
PARAMETER G(LIQUID,SN,ZN;0)  2.98150E+02  +19314.64-75.89949*T
  +8.751396*T*LN(T);   6.00000E+03   N REF0 !
PARAMETER G(LIQUID,SN,ZN;1)  2.98150E+02  -5696.28+4.20198*T;   
  6.00000E+03   N REF0 !
PARAMETER G(LIQUID,SN,ZN;2)  2.98150E+02  +1037.22+0.98362*T;   
  6.00000E+03   N REF0 !


PHASE BETA_SBZN  %  2  1   1 !
CONSTITUENT BETA_SBZN  :SB : ZN :  !
PARAMETER G(BETA_SBZN,SB:ZN;0)  2.98150E+02  -22909+9.2716*T+GHSERZN
  +GHSERSB;   6.00000E+03   N  LI06 ! 


PHASE DELTA_SB3ZN4  %  2  3.087   3.913 !
CONSTITUENT DELTA_SB3ZN4  :SB : ZN :  !
PARAMETER G(DELTA_SB3ZN4,SB:ZN;0)  2.98150E+02  -45931-11.1711*T
  +3.913*GHSERZN+3.087*GHSERSB;   6.00000E+03   N LI06 !

PHASE DELTAD_SB3ZN4  %  2  3.094  3.906 !
CONSTITUENT DELTAD_SB3ZN4  :SB : ZN :  !
PARAMETER G(DELTAD_SB3ZN4,SB:ZN;0)  2.98150E+02  -21785-41.2819*T
  +3.906*GHSERZN+3.094*GHSERSB;   6.00000E+03   N LI06 ! 

PHASE EPSILON_SB3ZN4  %  2  3   4 !
CONSTITUENT EPSILON_SB3ZN4  :SB,SN : ZN,SN :  !
PARAMETER G(EPSILON_SB3ZN4,SB:ZN;0)  2.98150E+02  -65647+14.7403*T+4*GHSERZN
  +3*GHSERSB;   6.00000E+03   N LI06 !

PHASE KSI_SB2ZN3  %  2  2.025   2.975 !
CONSTITUENT KSI_SB2ZN3  :SB : ZN :  !
PARAMETER G(KSI_SB2ZN3,SB:ZN;0)  2.98150E+02  -27137-14.8975*T+2.975*GHSERZN
  +2.025*GHSERSB;   6.00000E+03   N LI06 !

PHASE ETA_SB2ZN3  %  2  2   3 !
CONSTITUENT ETA_SB2ZN3  :SB : ZN :  !
PARAMETER G(ETA_SB2ZN3,SB:ZN;0)  2.98150E+02  -30667-9.4925*T+3*GHSERZN
  +2*GHSERSB;   6.00000E+03   N LI06 !

$assessed parameters
PHASE Sb2SnZn %  3  2  1 1 !
CONSTITUENT Sb2SnZn  :SB : SN : ZN: !
PARAMETER G(Sb2SnZn,SB:SN:ZN;0)  2.98150E+02  -36746.26+15.99*T
+2*GHSERSB+GHSERZN+GHSERSN; 6.00000E+03 N !

PARAMETER G(LIQUID,SB,SN,ZN;0)  2.98150E+02  -18000;  
 6.00000E+03   N !

PARAMETER G(LIQUID,SB,SN,ZN;1) 298.15
111180-108.98*T; 6.00000E+03 N !


PARAMETER G(LIQUID,SB,SN,ZN;2)  2.98150E+02  0;  
 6.00000E+03   N !

PARAMETER G(EPSILON_SB3ZN4,SB:SN,ZN;0)  2.98150E+02  -10000+4*GHSERZN
  +3*GHSERSB;   6.00000E+03   N LI06 ! !

