
$ Database file written 12- 8-15
$
 ELEMENT /-   ELECTRON_GAS              0.0000E+00  0.0000E+00  0.0000E+00!
 ELEMENT VA   VACUUM                    0.0000E+00  0.0000E+00  0.0000E+00!
 ELEMENT CO   HCP_A3                    5.8933E+01  0.0000E+00  0.0000E+00!
 ELEMENT FE   BCC_A2                    5.5847E+01  4.4890E+03  2.7280E+01!
 ELEMENT SB   RHOMBOHEDRAL_A7           1.2175E+02  5.8702E+03  4.5522E+01!


 FUNCTION GHSERCO    2.98140E+02  +310.241+133.36601*T-25.0861*T*LN(T)
     -.002654739*T**2-1.7348E-07*T**3+72527*T**(-1);  1.76800E+03  Y
      -17197.666+253.28374*T-40.5*T*LN(T)+9.3488E+30*T**(-9);  6.00000E+03   N !
 FUNCTION GCOFCC     2.98150E+02  +427.59-.615248*T+GHSERCO#;  
         6.00000E+03  N !
 FUNCTION GCOBCC     2.98150E+02  +2938-.7138*T+GHSERCO#;   
        6.00000E+03   N !
 FUNCTION GHSERFE    2.98140E+02  +1225.7+124.134*T-23.5143*T*LN(T)
     -.00439752*T**2-5.8927E-08*T**3+77359*T**(-1); 1.81100E+03  Y
      -25383.581+299.31255*T-46*T*LN(T)+2.29603E+31*T**(-9);  
       6.00000E+03  N  !
 FUNCTION GFEFCC     2.98140E+02  -1462.4+8.282*T-1.15*T*LN(T)+6.4E-04*T**2
     +GHSERFE#;  1.81100E+03  Y
      -27098.266+300.25256*T-46*T*LN(T)+2.78854E+31*T**(-9);  6.00000E+03  N !
 FUNCTION GFELIQ     2.98140E+02  +12040.17-6.55843*T+GHSERFE#
     -3.67516E-21*T**7;  1.81100E+03  Y
      -10838.83+291.302*T-46*T*LN(T);  6.00000E+03  N !
 FUNCTION GHSERSB    2.98140E+02  -9242.858+156.154689*T-30.5130752*T*LN(T)
     +.007748768*T**2-3.003415E-06*T**3+100625*T**(-1);  9.03780E+02  Y
      -11738.83+169.485872*T-31.38*T*LN(T)+1.616849E+27*T**(-9);  
     2.00000E+03  N !
 FUNCTION GHSERSB_LOW  298.14  -9242.858+156.154689*T-30.5130752*T*LN(T)
      +.007748768*T**2-3.003415E-06*T**3+100625*T**(-1);  6000 N !

 FUNCTION UN_ASS 298.15 0; 300 N !

 TYPE_DEFINITION % SEQ *!
 DEFINE_SYSTEM_DEFAULT SPECIE 2 !
 DEFAULT_COMMAND DEF_SYS_ELEMENT VA !


 PHASE LIQUID  %  1  1.0  !
    CONSTITUENT LIQUID  :CO,FE,SB :  !

   PARAMETER G(LIQUID,CO;0)  2.98140E+02  +15085.037-8.931932*T+GHSERCO#
        -2.19801E-21*T**7;  1.76800E+03  Y
        -846.61+243.599944*T-40.5*T*LN(T);  6.00000E+03  N REF:0 !
   PARAMETER G(LIQUID,FE;0)  2.98150E+02  +GFELIQ#;  
         6.00000E+03   N REF:0 !
   PARAMETER G(LIQUID,SB;0)  2.98140E+02  +19822.328-21.923164*T+GHSERSB#
        -1.74847E-20*T**7;  9.03780E+02  Y
        +8175.359+147.455986*T-31.38*T*LN(T);  2.00000E+03  N REF:0 !
   PARAMETER G(LIQUID,CO,FE;0)  2.98140E+02  -9753.82;   6.00000E+03 N REF:0 !
   PARAMETER G(LIQUID,CO,FE;2)  2.98140E+02  +2757.96; 
        6.00000E+03   N REF:0 !
   PARAMETER G(LIQUID,CO,SB;0)  2.98140E+02  +8001.6-27.8*T;  
        6.00000E+03 N REF:0 !
   PARAMETER G(LIQUID,CO,SB;1)  2.98140E+02  -23400+20.6*T;  
        6.00000E+03  N REF:0 !
   PARAMETER G(LIQUID,CO,SB;2)  2.98140E+02  +13708-4.5*T;  
       6.00000E+03  N REF:0 !
   PARAMETER G(LIQUID,FE,SB;0)  2.98140E+02  -10200; 
         6.00000E+03 N REF:0 !
   PARAMETER G(LIQUID,FE,SB;1)  2.98140E+02  +3000-4.53*T;   
       6.00000E+03 N REF:0 !
   PARAMETER G(LIQUID,FE,SB;2)  2.98140E+02  +10500;  
        6.00000E+03 N REF:0 !
   PARAMETER G(LIQUID,CO,FE,SB;0)  2.98140E+02  -190000+135*T;  
      6.00000E+03 N REF:0 !
   PARAMETER G(LIQUID,CO,FE,SB;1)  2.98140E+02  -175000+150.6*T;          6.00000E+03 N REF:0 !
   PARAMETER G(LIQUID,CO,FE,SB;2)  2.98140E+02  -90000+70*T;   
       6.00000E+03 N REF:0 !
  
  TYPE_DEFINITION & GES A_P_D BCC_A2 MAGNETIC  -1.0    4.00000E-01 ! 
 PHASE BCC_A2  %&  1  1.0  !
    CONSTITUENT BCC_A2  :CO,FE,SB :  !

   PARAMETER G(BCC_A2,CO;0)  2.98150E+02  +GCOBCC#;  
        6.00000E+03   N REF:0 !
   PARAMETER G(BCC_A2,FE;0)  2.98150E+02  +GHSERFE#;  
       6.00000E+03  N REF:0 !
   PARAMETER G(BCC_A2,SB;0)  2.98140E+02  +19874-15.1*T+GHSERSB#;  
        2.00000E+03  N REF:0 !

   PARAMETER TC(BCC_A2,CO;0) 2.98150E+02  +1450; 
        6.00000E+03     N REF:0 !
   PARAMETER TC(BCC_A2,FE;0) 2.98150E+02  +1043;   
        6.00000E+03     N REF:0 !
   PARAMETER TC(BCC_A2,CO,FE;0) 2.98150E+02  +590;  
        6.00000E+03    N REF:0 !
   PARAMETER BMAGN(BCC_A2,CO;0)  2.98150E+02  1.35;  
       6.00000E+03     N REF:0 !
   PARAMETER BMAGN(BCC_A2,FE;0)  2.98150E+02  2.22;   
         6.00000E+03     N REF:0 !
   PARAMETER BMAGN(BCC_A2,CO,FE;0)  2.98150E+02  1.406;  
       6.00000E+03    N REF:0 !
   PARAMETER BMAGN(BCC_A2,CO,FE;1)  2.98150E+02  -0.6617;  
        6.00000E+03   N REF:0 !

   PARAMETER G(BCC_A2,CO,FE;0)  2.98150E+02  -26222.7+125*T-15.502*T*LN(T)
          -632250*T**(-1);  6.00000E+03   N REF:0 !
   PARAMETER G(BCC_A2,CO,FE;2)  2.98150E+02  +2686.79+632250*T**(-1);
          6.00000E+03  N REF:0 !
   PARAMETER G(BCC_A2,CO,SB;0)  2.98150E+02  +5000;  6.00000E+03   N REF:0 !
   PARAMETER G(BCC_A2,FE,SB;0)  2.98150E+02  +3512+17*T;  
         6.00000E+03   N REF:0 !
   PARAMETER G(BCC_A2,FE,SB;1)  2.98150E+02  -29000;  6.00000E+03   N REF:0 !
   PARAMETER G(BCC_A2,CO,FE,SB;0)  2.98150E+02  +7000-21*T;  
         6.00000E+03   N REF:0 !
   PARAMETER G(BCC_A2,CO,FE,SB;1)  2.98150E+02  -20000-40*T;  
         6.00000E+03  N REF:0 !
   PARAMETER G(BCC_A2,CO,FE,SB;2)  2.98150E+02  0;  6.00000E+03    N REF:0 !

  TYPE_DEFINITION ^ GES A_P_D BCC_B2 DIS_PART  BCC_A2,,,!
 TYPE_DEFINITION @ GES A_P_D BCC_B2 MAGNETIC  -1.0    4.00000E-01 !
 PHASE BCC_B2 %^@  2 .5   .5 !
   CONSTITUENT BCC_B2  :CO,FE,SB : CO,FE,SB :  !
   
   PARAMETER TC(BCC_B2,CO:CO;0) 2.98150E+02  0;   6.00000E+03    
          N REF:0 !
   PARAMETER TC(BCC_B2,CO:FE;0) 2.98150E+02  +370;   6.00000E+03    
          N REF:0 !
   PARAMETER TC(BCC_B2,CO:CO,FE;0) 2.98150E+02  -370;   6.00000E+03    
          N REF:0 !
   PARAMETER TC(BCC_B2,CO,FE:CO;0) 2.98150E+02  -370;   6.00000E+03    
           N REF:0 !
   PARAMETER TC(BCC_B2,CO,FE:FE;0) 2.98150E+02  -370;   6.00000E+03    
           N REF:0 !
   PARAMETER BMAGN(BCC_B2,CO:CO;0)  2.98150E+02  0;   6.00000E+03    
          N REF:0 !
   PARAMETER BMAGN(BCC_B2,CO:FE;0)  2.98150E+02 +0.1;   6.00000E+03    
          N REF:0 !
   PARAMETER BMAGN(BCC_B2,CO:CO,FE;0)  2.98150E+02 -0.1;   6.00000E+03    
          N REF:0 !
   PARAMETER BMAGN(BCC_B2,CO,FE:CO;0)  2.98150E+02 -0.1;   6.00000E+03    
          N REF:0 !
   PARAMETER BMAGN(BCC_B2,CO,FE:FE;0)  2.98150E+02 -0.1;   6.00000E+03    
          N REF:0 !

   PARAMETER G(BCC_B2,CO:CO;0)  2.98150E+02  0;   6.00000E+03  
         N REF:0 !
   PARAMETER G(BCC_B2,CO:FE;0)  2.98150E+02  -1621.23;   6.00000E+03  
         N REF:0 !
   PARAMETER G(BCC_B2,CO:SB;0)  2.98150E+02  0;   6.00000E+03  
         N REF:0 !
   PARAMETER G(BCC_B2,CO:CO,FE;0)  2.98150E+02  +1744.89;   6.00000E+03  
         N REF:0 !
   PARAMETER G(BCC_B2,CO:CO,FE;1)  2.98150E+02  -123.653;   6.00000E+03  
         N REF:0 !
   PARAMETER G(BCC_B2,CO:CO,SB;0)  2.98150E+02  0;   6.00000E+03  
         N REF:0 !
   PARAMETER G(BCC_B2,CO:FE,SB;0)  2.98150E+02  0;   6.00000E+03  
         N REF:0 !
   PARAMETER G(BCC_B2,CO,FE:CO;0)  2.98150E+02  +1744.89;   6.00000E+03  
         N REF:0 !
   PARAMETER G(BCC_B2,CO,FE:CO;1)  2.98150E+02  -123.653;   6.00000E+03  
         N REF:0 !
   PARAMETER G(BCC_B2,CO,FE:FE;0)  2.98150E+02  +1497.58;   6.00000E+03  
         N REF:0 !
   PARAMETER G(BCC_B2,CO,FE:FE;1)  2.98150E+02  -123.653;   6.00000E+03  
         N REF:0 !
   PARAMETER G(BCC_B2,CO,FE:SB;0)  2.98150E+02  0;   6.00000E+03  
         N REF:0 !
   PARAMETER G(BCC_B2,CO,FE:CO,FE;0)  2.98150E+02  -2529000*T**(-1);   
         6.00000E+03  N REF:0 !
   PARAMETER G(BCC_B2,CO,SB:CO;0)  2.98150E+02  0;   6.00000E+03  
         N REF:0 !
   PARAMETER G(BCC_B2,CO,SB:FE;0)  2.98150E+02  0;   6.00000E+03  
         N REF:0 !
   PARAMETER G(BCC_B2,CO,SB:SB;0)  2.98150E+02  0;   6.00000E+03  
         N REF:0 !

   PARAMETER TC(BCC_B2,FE:FE;0) 2.98150E+02  0;   6.00000E+03    
        N REF:0 !
   PARAMETER TC(BCC_B2,FE:CO;0) 2.98150E+02  +370;   6.00000E+03    
        N REF:0 !
   PARAMETER TC(BCC_B2,FE:CO,FE;0) 2.98150E+02  -370;   6.00000E+03    
        N REF:0 !
   PARAMETER BMAGN(BCC_B2,FE:FE;0)  2.98150E+02  0;   6.00000E+03    
        N REF:0 !
   PARAMETER BMAGN(BCC_B2,FE:CO;0)  2.98150E+02  +0.1;   6.00000E+03    
        N REF:0 !
   PARAMETER BMAGN(BCC_B2,FE:CO,FE;0)  2.98150E+02  -0.1;   6.00000E+03    
        N REF:0 !
   PARAMETER G(BCC_B2,FE:CO;0)  2.98150E+02  -1621.23;   6.00000E+03  
        N REF:0 !
   PARAMETER G(BCC_B2,FE:FE;0)  2.98150E+02  0;   6.00000E+03  
        N REF:0 !
   PARAMETER G(BCC_B2,FE:SB;0)  2.98150E+02  0;   6.00000E+03  
        N REF:0 !
   PARAMETER G(BCC_B2,FE:CO,FE;0)  2.98150E+02  +1497.58;   6.00000E+03  
        N REF:0 !
   PARAMETER G(BCC_B2,FE:CO,FE;1)  2.98150E+02  -123.653;   6.00000E+03  
        N REF:0 !
   PARAMETER G(BCC_B2,FE:CO,SB;0)  2.98150E+02  0;   6.00000E+03  
        N REF:0 !
   PARAMETER G(BCC_B2,FE:FE,SB;0)  2.98150E+02  0;   6.00000E+03  
        N REF:0 !
   PARAMETER G(BCC_B2,FE,SB:CO;0)  2.98150E+02  0;   6.00000E+03  
        N REF:0 !
   PARAMETER G(BCC_B2,FE,SB:FE;0)  2.98150E+02  0;   6.00000E+03  
        N REF:0 !
   PARAMETER G(BCC_B2,FE,SB:SB;0)  2.98150E+02  0;   6.00000E+03  
        N REF:0 !
   PARAMETER G(BCC_B2,SB:CO;0)  2.98150E+02  0;   6.00000E+03  
        N REF:0 !
   PARAMETER G(BCC_B2,SB:FE;0)  2.98150E+02  0;   6.00000E+03  
        N REF:0 !
   PARAMETER G(BCC_B2,SB:SB;0)  2.98150E+02  0;   6.00000E+03  
        N REF:0 !
   PARAMETER G(BCC_B2,SB:CO,FE;0)  2.98150E+02  0;   6.00000E+03  
        N REF:0 !
   PARAMETER G(BCC_B2,SB:CO,SB;0)  2.98150E+02  0;   6.00000E+03  
        N REF:0 !
   PARAMETER G(BCC_B2,SB:FE,SB;0)  2.98150E+02  0;   6.00000E+03  
        N REF:0 !

  TYPE_DEFINITION ) GES A_P_D FCC_A1 MAGNETIC  -3.0    2.80000E-01 !
 PHASE FCC_A1  %)  1  1.0  !
    CONSTITUENT FCC_A1  :CO,FE,SB :  !

   PARAMETER TC(FCC_A1,CO;0)  2.98150E+02  1396;   6.00000E+03   N REF:0 !
   PARAMETER BMAGN(FCC_A1,CO;0)  2.98150E+02  1.35;   
       6.00000E+03   N REF:0 !
   PARAMETER G(FCC_A1,CO;0)  2.98150E+02  +GCOFCC#; 
       6.00000E+03   N REF:0 !
   PARAMETER TC(FCC_A1,CO,FE;0)  2.98150E+02  +283;   6.00000E+03   N REF:0 !
   PARAMETER TC(FCC_A1,CO,FE;1)  2.98150E+02  +879;   6.00000E+03   N REF:0 !
   PARAMETER BMAGN(FCC_A1,CO,FE;0)  2.98150E+02  +8.407; 
       6.00000E+03   N REF:0 !
   PARAMETER BMAGN(FCC_A1,CO,FE;1)  2.98150E+02  -3.644;  
      6.00000E+03   N REF:0 !
   PARAMETER G(FCC_A1,CO,FE;0)  2.98150E+02  -8968.75;  
      6.00000E+03   N REF:0 !
   PARAMETER G(FCC_A1,CO,FE;2)  2.98150E+02  +3528.8;  
      6.00000E+03   N  REF:0 !
   PARAMETER G(FCC_A1,CO,SB;0)  2.98150E+02  +21458.825-27.52*T;         6.00000E+03  N REF:0 !
   PARAMETER G(FCC_A1,CO,SB;1)  2.98150E+02  -33494.8+13.2728*T;         6.00000E+03  N REF:0 !
   PARAMETER G(FCC_A1,CO,SB;2)  2.98150E+02  +12842+10.19025*T;          6.00000E+03  N REF:0 !
   PARAMETER TC(FCC_A1,FE;0)  2.98150E+02  -201;   6.00000E+03   N REF:0 !
   PARAMETER BMAGN(FCC_A1,FE;0)  2.98150E+02  -2.1;   6.00000E+03   N REF:0 !
   PARAMETER G(FCC_A1,FE;0)  2.98150E+02  +GFEFCC#;   6.00000E+03   N REF:0 !
   PARAMETER G(FCC_A1,FE,SB;0)  2.98150E+02  3950+10*T;   
         6.00000E+03   N REF:0 !
   PARAMETER G(FCC_A1,FE,SB;1)  2.98150E+02  -15000;   6.00000E+03  N REF:0 !
   PARAMETER G(FCC_A1,FE,SB;2)  2.98150E+02  0;   6.00000E+03  N REF:0 !
   PARAMETER G(FCC_A1,SB;0)  2.98140E+02  +19874-13.7*T+GHSERSB#;  
        2.00000E+03  N REF:0 !
   PARAMETER G(FCC_A1,CO,FE,SB;0)  2.98150E+02  -8000+12*T;  
        6.00000E+03  N REF:0 !
   PARAMETER G(FCC_A1,CO,FE,SB;1)  2.98150E+02  -11000+16*T;   
       6.00000E+03   N REF:0 !
   PARAMETER G(FCC_A1,CO,FE,SB;2)  2.98150E+02  0;   6.00000E+03   N REF:0 !

  TYPE_DEFINITION ( GES A_P_D HCP_A3 MAGNETIC  -3.0    2.80000E-01 !
 PHASE HCP_A3  %(  1  1.0  !
    CONSTITUENT HCP_A3  :CO,FE,SB :  !

   PARAMETER TC(HCP_A3,CO;0)  2.98150E+02  1396;   6.00000E+03   N REF:0 !
   PARAMETER BMAGN(HCP_A3,CO;0)  2.98150E+02  1.35;   
      6.00000E+03   N  REF:0 !
   PARAMETER G(HCP_A3,CO;0)  2.98150E+02  +GHSERCO#;  
      6.00000E+03   N REF:0 !
   PARAMETER TC(HCP_A3,CO,FE;0)  2.98150E+02  -253;   6.00000E+03   N REF:0 !
   PARAMETER TC(HCP_A3,CO,FE;1)  2.98150E+02  +1494;   6.00000E+03   N REF:0 !
   PARAMETER BMAGN(HCP_A3,CO,FE;0)  2.98150E+02  5.41;   
      6.00000E+03   N  REF:0 !
   PARAMETER BMAGN(HCP_A3,CO,FE;1)  2.98150E+02  -0.24;   
      6.00000E+03   N REF:0 !
   PARAMETER G(HCP_A3,CO,FE;0)  2.98150E+02  +5000;   6.00000E+03   N  REF:0 !
   PARAMETER G(HCP_A3,CO,SB;0)  2.98150E+02  +5000;   6.00000E+03   N  REF:0 !
   PARAMETER G(HCP_A3,FE;0)  2.98140E+02  -3705.78+12.591*T-1.15*T*LN(T)
         +6.4E-04*T**2+GHSERFE#;  1.81100E+03  Y
         -3957.199+5.24951*T+GHSERFE#+4.9251E+30*T**(-9);  6.00000E+03  N REF:0 !
   PARAMETER G(HCP_A3,FE,SB;0)  2.98150E+02  0;   6.00000E+03   N  REF:0 !
   PARAMETER G(HCP_A3,SB;0)  2.98140E+02  +19874-13*T+GHSERSB#;  
         2.00000E+03  N REF:0 !
   PARAMETER G(HCP_A3,CO,FE,SB;0)  2.98150E+02  0;   6.00000E+03   N REF:0 !
   PARAMETER G(HCP_A3,CO,FE,SB;1)  2.98150E+02  0;   6.00000E+03   N  REF:0 !
   PARAMETER G(HCP_A3,CO,FE,SB;2)  2.98150E+02  0;   6.00000E+03   N  REF:0 !

 PHASE RHOMBO_A7  %  1  1.0  !
    CONSTITUENT RHOMBO_A7  :SB :  !

   PARAMETER G(RHOMBO_A7,SB;0)  2.98140E+02  +GHSERSB#;  
       2.00000E+03  N REF:0 !

 PHASE COFESB %  3 .3333   .3333   .3333 !
   CONSTITUENT COFESB  :SB : CO,FE,VA : VA,CO,FE :  !

    PARAMETER G(COFESB,SB:CO:VA;0)  2.98150E+02  -15440
         -3.95*T+.4920984*T*LN(T)
         +.002260226*T**2-1.0735435E-06*T**3-15000*T**(-1)+1.5E-21*T**7
         +.3333*GHSERCO+.3333*GHSERSB_LOW;    6.00000E+03   N REF:0 !
    PARAMETER G(COFESB,SB:CO:CO;0)  2.98150E+02  -12044.4+3.2*T
        +.6667*GHSERCO+.3333*GHSERSB;    6.00000E+03   N REF:0 !
    PARAMETER G(COFESB,SB:CO:FE;0)  2.98150E+02  -6500-4*T+.3333*GHSERSB
        +.3333*GHSERCO+.3333*GHSERFE;    6.00000E+03   N REF:0 !
    PARAMETER G(COFESB,SB:FE:VA;0)  2.98150E+02  -7000+2.5*T+.33726*T*LN(T)
        -.0101350266*T**2+2.30276E-05*T**3+15000*T**(-1)+.3333*GHSERFE
       +.3333*GHSERSB_LOW;   6.00000E+03   N REF:0 !
    PARAMETER G(COFESB,SB:FE:CO;0)  2.98150E+02         0+.3333*GHSERSB+.3333*GHSERCO
       +.3333*GHSERFE;    6.00000E+03   N REF:0 !
    PARAMETER G(COFESB,SB:FE:FE;0)  2.98150E+02  
        -7000+4.01*T+.6667*GHSERFE
        +.3333*GHSERSB;    6.00000E+03   N REF:0 !
    PARAMETER G(COFESB,SB:VA:VA;0)  2.98150E+02  +5522.55+1.3*T
         +.3333*GHSERSB;    6.00000E+03   N REF:0 !
    PARAMETER G(COFESB,SB:VA:CO;0)  2.98150E+02 
         -7103.3+50*T+.3333*GHSERCO
         +.3333*GHSERSB;    6.00000E+03   N REF:0 !
    PARAMETER G(COFESB,SB:VA:FE;0)  2.98150E+02  -1500-3*T+.3333*GHSERFE
        +.3333*GHSERSB;    6.00000E+03   N REF:0 !
    PARAMETER G(COFESB,SB:CO:VA,FE;0)  2.98150E+02  -18000+13.4*T;   
        6.00000E+03   N REF:0 !
    PARAMETER G(COFESB,SB:CO:CO,FE;0)  2.98150E+02  -40000+66*T;   
       6.00000E+03   N REF:0 !
    PARAMETER G(COFESB,SB:CO:CO,VA;0)  2.98150E+02  -7522.5+4*T;   
       6.00000E+03   N REF:0 !
    PARAMETER G(COFESB,SB:CO,FE:CO;0)  2.98150E+02  -11000+9*T;   
       6.00000E+03   N REF:0 !
    PARAMETER G(COFESB,SB:CO,FE:VA;0)  2.98150E+02  -11000+9*T;   
       6.00000E+03   N REF:0 !
    PARAMETER G(COFESB,SB:CO,FE:FE;0)  2.98150E+02  -11000+9*T;   
       6.00000E+03   N REF:0 !
    PARAMETER G(COFESB,SB:CO,VA:VA;0)  2.98150E+02  +500-2*T;   
       6.00000E+03   N REF:0 !
    PARAMETER G(COFESB,SB:CO,VA:CO;0)  2.98150E+02  +500-2*T;   
       6.00000E+03   N REF:0 !
    PARAMETER G(COFESB,SB:CO,VA:FE;0)  2.98150E+02  -8500-0.65*T;   
       6.00000E+03   N REF:0 !
    PARAMETER G(COFESB,SB:FE:VA,FE;0)  2.98150E+02  -3196.2-1.5573*T;   
      6.00000E+03   N REF:0 !
    PARAMETER G(COFESB,SB:FE:CO,FE;0)  2.98150E+02  -40000+66*T;   
      6.00000E+03   N REF:0 !
    PARAMETER G(COFESB,SB:FE:CO,VA;0)  2.98150E+02  -7522.5+4*T;  
      6.00000E+03   N REF:0 !
    PARAMETER G(COFESB,SB:FE,VA:VA;0)  2.98150E+02  -6200-4*T;   
      6.00000E+03   N REF:0 !
    PARAMETER G(COFESB,SB:FE,VA:CO;0)  2.98150E+02  -6200-4*T;   
      6.00000E+03   N REF:0 !
    PARAMETER G(COFESB,SB:FE,VA:FE;0)  2.98150E+02  -6200-4*T;   
      6.00000E+03   N REF:0 !
    PARAMETER G(COFESB,SB:VA:VA,FE;0)  2.98150E+02  -3196.2-1.5573*T;   
      6.00000E+03   N REF:0 !
    PARAMETER G(COFESB,SB:VA:CO,FE;0)  2.98150E+02  -40000+66*T;   
      6.00000E+03   N REF:0 !
    PARAMETER G(COFESB,SB:VA:CO,VA;0)  2.98150E+02  -7522.5+4*T;  
      6.00000E+03   N REF:0 !

 PHASE COFESB2  %  2 .3333   .6667 !
    CONSTITUENT COFESB2  :CO,FE : SB :  !  

    PARAMETER G(COFESB2,CO:SB;0)  2.98150E+02  
       -25535+5.39*T+2.07785787*T*LN(T)
       -.013091*T**2+1.56960316E-06*T**3-5000*T**(-1)+2.1E-21*T**7
       +.3333*GHSERCO+.6667*GHSERSB_LOW;    6.00000E+03   N REF:0 !
    PARAMETER G(COFESB2,FE:SB;0)  2.98150E+02   -8408-49.72*T
         +7.20240460988454*T*LN(T)+0.0000221180797268422*T**2
         -48862.3285032292*T**(-1) +21E-21*T**7
         +.3333*GHSERFE +.6667*GHSERSB_LOW;    6.00000E+03   N REF:0 !
    PARAMETER G(COFESB2,CO,FE:SB;0)  2.98150E+02  -600+2.45*T; 
         6.00000E+03 N REF:0 !
    PARAMETER G(COFESB2,CO,FE:SB;1)  2.98150E+02  +400;  
         6.00000E+03 N REF:0 !
    PARAMETER G(COFESB2,CO,FE:SB;2)  2.98150E+02  0;  
        6.00000E+03  N REF:0 !
 
 PHASE COFESB3  %  2 .25   .75 !
    CONSTITUENT COFESB3  :CO,FE : SB :  !  

    PARAMETER G(COFESB3,CO:SB;0)  2.98150E+02  -21890+39.455*T-3.6*T*LN(T)
        -.01*T**2+2.9E-06*T**3+5000*T**(-1)-5E-22*T**7+.25*GHSERCO
        +.75*GHSERSB_LOW;    6.00000E+03   N REF:0 !
    PARAMETER G(COFESB3,FE:SB;0)  2.98150E+02  +1200+4.55*T+.25*GHSERFE
        +.75*GHSERSB;    6.00000E+03   N REF:0 ! 
    PARAMETER G(COFESB3,CO,FE:SB;0)  2.98150E+02  -13500-0.65*T;                     6.00000E+03 N REF:0 !
    PARAMETER G(COFESB3,CO,FE:SB;1)  2.98150E+02  -1000;   
         6.00000E+03 N REF:0 !
    PARAMETER G(COFESB3,CO,FE:SB;2)  2.98150E+02  +2000+4*T;  
         6.00000E+03 N REF:0 !

 LIST_OF_REFERENCES
 NUMBER  SOURCE
  ! 

