$$$$$$$$$$$$$$$$$$$$$$$$$$$$$$$$$$$$$$$$$$$$$$$$$$$$$$$$$$$$$$$$$$$$$$$$$$$$$
$          The thermodynamic parameters for the Al-C-Fe system              $
$                         By  Weisen Zheng                                  $
$$$$$$$$$$$$$$$$$$$$$$$$$$$$$$$$$$$$$$$$$$$$$$$$$$$$$$$$$$$$$$$$$$$$$$$$$$$$$ 

 ELEMENT /-   ELECTRON_GAS              0.0000E+00  0.0000E+00  0.0000E+00!
 ELEMENT VA   VACUUM                    0.0000E+00  0.0000E+00  0.0000E+00!
 ELEMENT AL   FCC_A1                    2.6982E+01  4.5773E+03  2.8322E+01!
 ELEMENT C    GRAPHITE                  1.2011E+01  1.0540E+03  5.7400E+00!
 ELEMENT FE   BCC_A2                    5.5847E+01  4.4890E+03  2.7280E+01!
 
 
 FUNCTION GALLIQ    298.15 +11005.029-11.841867*T+7.934E-20*T**7+GHSERAL#; 
     933.47 Y
      +10482.382-11.253974*T+1.231E+28*T**(-9)+GHSERAL#; 6000 N !
 FUNCTION GHSERCC   298.15 -17368.441+170.73*T-24.3*T*LN(T)-4.723E-04*T**2
     +2562600*T**(-1)-2.643E+08*T**(-2)+1.2E+10*T**(-3); 6000 N !
 FUNCTION GFELIQ    298.15 +12040.17-6.55843*T-3.6751551E-21*T**7+GHSERFE#; 
     1811 Y
      -10839.7+291.302*T-46*T*LN(T); 6000 N !
 FUNCTION GHSERAL   298.15 -7976.15+137.093038*T-24.3671976*T*LN(T)
     -.001884662*T**2-8.77664E-07*T**3+74092*T**(-1); 700 Y
      -11276.24+223.048446*T-38.5844296*T*LN(T)+.018531982*T**2
     -5.764227E-06*T**3+74092*T**(-1); 933.47 Y
      -11278.378+188.684153*T-31.748192*T*LN(T)-1.230524E+28*T**(-9); 2900 N 
     !
 FUNCTION GHSERFE   298.15 +1225.7+124.134*T-23.5143*T*LN(T)-.00439752*T**2
     -5.8927E-08*T**3+77359*T**(-1); 1811 Y
      -25383.581+299.31255*T-46*T*LN(T)+2.29603E+31*T**(-9); 6000 N !
 FUNCTION GALBCC    298.15 +10083-4.813*T+GHSERAL#; 6000 N !
 FUNCTION GFEFCC    298.15 -1462.4+8.282*T-1.15*T*LN(T)+6.4E-04*T**2
     +GHSERFE#; 1811 Y
      -27097.396+300.25256*T-46*T*LN(T)+2.78854E+31*T**(-9); 6000 N !
 FUNCTION GFECEM    298.15  -10745+706.04*T-120.6*T*LN(T);   
     6000   N !  
 FUNCTION LFALFE0   298.15 -100041+25.14*T; 6000 N !
 FUNCTION LFALFE1   298.15 +33159-11.86*T; 6000 N !
 FUNCTION LFALFE2   298.15 +32200-17*T; 6000 N !
 FUNCTION GKALFE3C  298.15 +3*UKALFEC#-6250; 6000 N !
 FUNCTION GKAL2FE2  298.15 +4*UKALFEC#; 6000 N !
 FUNCTION GKAL3FEC  298.15 +3*UKALFEC#+2750; 6000 N !
 FUNCTION RECAFCV  	298.15 -10000; 6000 N !
 FUNCTION RECALFE 	298.15 +2259.1; 6000 N !
 FUNCTION KL0CVA   	298.15 +25507.5-27.5*T; 6000 N !
 FUNCTION L0    	298.15 +0; 6000 N ! 
 FUNCTION L1    	298.15 -32612; 6000 N ! 
 FUNCTION ZERO      298.15 +0.0; 6000 N !
 FUNCTION GAL3FE    298.15 +3*UALFE#+9000; 6000 N !
 FUNCTION GAL2FE2   298.15 +4*UALFE#; 6000 N !
 FUNCTION GALFE3    298.15 +3*UALFE#-3500; 6000 N !
 FUNCTION SROALFE   298.15 +UALFE#; 6000 N !
 FUNCTION GB2ALFE   298.15 +4*UBALFE1#; 6000 N !
 FUNCTION BMALFE    298.15 -1.36; 6000 N !
 FUNCTION UBALFE2   298.15 -1973-2*T; 6000 N !
 FUNCTION BLALFE0   298.15 -.3; 6000 N !
 FUNCTION BLALFE1   298.15 -.8; 6000 N !
 FUNCTION BLALFE2   298.15 +.2; 6000 N !
 FUNCTION GD03ALFE  298.15 +2*UBALFE1#+UBALFE2#+3900; 6000 N !
 FUNCTION GB32ALFE  298.15 +2*UBALFE1#+2*UBALFE2#; 6000 N !
 FUNCTION GD03FEAL  298.15 +2*UBALFE1#+UBALFE2#-70+.5*T; 6000 N !
 FUNCTION UALFE     298.15 -3200+.153*T; 6000 N !
 FUNCTION UBALFE1   298.15 -4018-1.14*T; 6000 N !
 FUNCTION UKALFEC   298.15 -14737.6+4.5*T; 6000 N !
 FUNCTION UN_ASS 	298.15 +0; 300 N !
 
 TYPE_DEFINITION % SEQ *!
 DEFINE_SYSTEM_DEFAULT ELEMENT 2 !
 DEFAULT_COMMAND DEF_SYS_ELEMENT VA /- !
 DEFAULT_COMMAND REJECT_PHASE BCC_B2 ! 

 PHASE LIQUID:L %  1  1.0  !
    CONSTITUENT LIQUID:L :AL,C,FE% :  !

   PARAMETER G(LIQUID,AL;0)               298.15 +GALLIQ#; 6000 N RDIN91 !
   PARAMETER G(LIQUID,C;0)                298.15 +117369-24.63*T+GHSERCC#; 
  6000 N RDIN91 !
   PARAMETER G(LIQUID,FE;0)               298.15 +GFELIQ#; 6000 N RDIN91 !
   PARAMETER G(LIQUID,AL,C;0)             298.15 +40861.02-33.21138*T; 6000 
  N RGRO96 !
   PARAMETER G(LIQUID,AL,C,FE;0)          298.15 -23000; 6000 N RZHE16 !
   PARAMETER G(LIQUID,AL,FE;0)            298.15 -81930+16.03*T; 6000 N 
  RZHE16 !
   PARAMETER G(LIQUID,AL,FE;1)            298.15 -15100+9.38*T;
  6000 N RZHE16 !
   PARAMETER G(LIQUID,C,FE;0)             298.15 -124320+28.5*T;
  6000 N RGUS85!
   PARAMETER G(LIQUID,C,FE;1)             298.15 +19300; 6000 N RGUS85 !
   PARAMETER G(LIQUID,C,FE;2)             298.15 +49260-19*T; 6000 N RGUS85 !


 TYPE_DEFINITION & GES A_P_D A1_KAPPA MAGNETIC  -3.0    2.80000E-01 !
 PHASE A1_KAPPA  %&  2 1   .25 !
    CONSTITUENT A1_KAPPA  :AL,FE : C,VA :  !

   PARAMETER G(A1_KAPPA,AL:C;0)           298.15 +GHSERAL#+.25*GHSERCC#
  +35250-3.1755*T; 6000 N RZHE16 !
   PARAMETER G(A1_KAPPA,FE:C;0)           298.15 +GFEFCC#+.25*GHSERCC#
  +12801-8.3655*T; 6000 N RCON08 !
   PARAMETER TC(A1_KAPPA,FE:C;0)          298.15 -201; 6000 N RCON08 !
   PARAMETER BMAGN(A1_KAPPA,FE:C;0)       298.15 -2.1; 6000 N RCON08 !
   PARAMETER G(A1_KAPPA,AL:VA;0)          298.15 +GHSERAL#+100;
  6000 N RCON08!
   PARAMETER G(A1_KAPPA,FE:VA;0)          298.15 +GFEFCC#+100;
  6000 N RCON08!
   PARAMETER TC(A1_KAPPA,FE:VA;0)         298.15 -201; 6000 N RCON08 !
   PARAMETER BMAGN(A1_KAPPA,FE:VA;0)      298.15 -2.1; 6000 N RCON08 !
   PARAMETER G(A1_KAPPA,AL,FE:C;0)        298.15 +GKAL3FEC#+1.5*GKAL2FE2#
  +GKALFE3C#+.375*RECALFE#+L0#; 6000 N RZHE16 !
   PARAMETER G(A1_KAPPA,AL,FE:C;1)        298.15 +2*GKAL3FEC#-2*GKALFE3C#
  -.75*RECALFE#+L1#; 6000 N RZHE16 !
   PARAMETER G(A1_KAPPA,AL,FE:C;2)        298.15 +GKAL3FEC#-1.5*GKAL2FE2#
  +GKALFE3C#; 6000 N RZHE16 !
   PARAMETER G(A1_KAPPA,AL,FE:C;3)        298.15 +.75*RECALFE#;
  6000 N RZHE16 !
   PARAMETER G(A1_KAPPA,AL,FE:C;4)        298.15 -.375*RECALFE#;
  6000 N RZHE16 !
   PARAMETER G(A1_KAPPA,AL,FE:C,VA;0)     298.15 -8021; 6000 N RZHE16 !
   PARAMETER G(A1_KAPPA,FE:C,VA;0)        298.15 +2000; 6000 N RCON08 !
   PARAMETER G(A1_KAPPA,AL,FE:VA;0)       298.15 +LFALFE0#; 6000 N RZHE16 !
   PARAMETER G(A1_KAPPA,AL,FE:VA;1)       298.15 +LFALFE1#; 6000 N RZHE16 !
   PARAMETER G(A1_KAPPA,AL,FE:VA;2)       298.15 +LFALFE2#; 6000 N RZHE16 !


 PHASE AL13FE4  %  3 .6275   .235   .1375 !
    CONSTITUENT AL13FE4  :AL : FE : AL,VA :  !

   PARAMETER G(AL13FE4,AL:FE:AL;0)        298.15 -30680+7.44*T
  +.765*GHSERAL#+.235*GHSERFE#; 6000 N RZHE16 !
   PARAMETER G(AL13FE4,AL:FE:VA;0)        298.15 -28100+7.44*T
  +.6275*GHSERAL#+.235*GHSERFE#; 6000 N RZHE16 !


 PHASE AL2FE  %  2 2   1 !
    CONSTITUENT AL2FE  :AL : FE :  !

   PARAMETER G(AL2FE,AL:FE;0)             298.15 -103900+23*T+2*GHSERAL#
  +GHSERFE#; 6000 N RZHE16 !


 PHASE AL4C3  %  2 4   3 !
    CONSTITUENT AL4C3  :AL : C :  !

   PARAMETER G(AL4C3,AL:C;0)              298.15 -286001.52+1030.27302*T
  -161.709142*T*LN(T)-.01152276*T**2+2450000*T**(-1)+7E-07*T**3;
  6000 N RGRO96!


 PHASE AL5FE2  %  2 5   2 !
    CONSTITUENT AL5FE2  :AL : FE :  !

   PARAMETER G(AL5FE2,AL:FE;0)            298.15 -235600+54.3*T+5*GHSERAL#
  +2*GHSERFE#; 6000 N RZHE16 !


 PHASE AL8FE5_D82  %  2 8   5 !
    CONSTITUENT AL8FE5_D82  :AL,FE : AL,FE :  !

   PARAMETER G(AL8FE5_D82,AL:AL;0)        298.15 +13*GALBCC#; 6000 N RSUN09 !
   PARAMETER G(AL8FE5_D82,FE:AL;0)        298.15 +200000+36.2*T+5*GALBCC#
  +8*GHSERFE#; 6000 N RZHE16 !
   PARAMETER G(AL8FE5_D82,AL:FE;0)        298.15 -394000+36.2*T+8*GALBCC#
  +5*GHSERFE#; 6000 N RZHE16 !
   PARAMETER G(AL8FE5_D82,FE:FE;0)        298.15 +13*GHSERFE#+13000; 6000 N 
  RSUN09 !
   PARAMETER G(AL8FE5_D82,AL:AL,FE;0)     298.15 -120000; 6000 N RZHE16 !
   PARAMETER G(AL8FE5_D82,AL,FE:FE;0)     298.15 -174000; 6000 N RSUN09 !

   
 TYPE_DEFINITION ( GES A_P_D BCC_A2 MAGNETIC  -1.0    4.00000E-01 !
 PHASE BCC_A2  %(  2 1   3 !
    CONSTITUENT BCC_A2  :AL,FE% : C,VA% :  !

   PARAMETER G(BCC_A2,AL:C;0)             298.15 +GHSERAL#+3*GHSERCC#
  +100000+80*T; 6000 N RCON08 !
   PARAMETER G(BCC_A2,FE:C;0)             298.15 +GHSERFE#+3*GHSERCC#
  +322050+75.667*T; 6000 N RGUS85 !
   PARAMETER TC(BCC_A2,FE:C;0)            298.15 +1043; 6000 N RGUS85 !
   PARAMETER BMAGN(BCC_A2,FE:C;0)         298.15 +2.22; 6000 N RGUS85 !
   PARAMETER G(BCC_A2,AL:VA;0)            298.15 +GALBCC#; 2900 N RDIN91 !
   PARAMETER G(BCC_A2,FE:VA;0)            298.15 +GHSERFE#; 6000 N RDIN91 !
   PARAMETER TC(BCC_A2,FE:VA;0)           298.15 +1043; 6000 N RDIN91 !
   PARAMETER BMAGN(BCC_A2,FE:VA;0)        298.15 +2.22; 6000 N RDIN91 !
   PARAMETER G(BCC_A2,AL:C,VA;0)          298.15 +130000+14*T; 6000 N RCON08 !
   PARAMETER G(BCC_A2,FE:C,VA;0)          298.15 -190*T; 6000 N RGUS85 !
   PARAMETER G(BCC_A2,AL,FE:VA;0)         298.15 -122360+31.6*T; 6000 N 
  RZHE16 !
   PARAMETER G(BCC_A2,AL,FE:VA;1)         298.15 +2945.2; 6000 N RSUN09 !
   PARAMETER G(BCC_A2,AL,FE:VA;2)         298.15 +495; 6000 N RZHE16 !
   PARAMETER TC(BCC_A2,AL,FE:VA;0)        298.15 -437.95; 6000 N RSUN09 !
   PARAMETER TC(BCC_A2,AL,FE:VA;1)        298.15 -1719.7; 6000 N RSUN09 !
   

$ THIS PHASE HAS A DISORDERED CONTRIBUTION FROM BCC_A2   
 TYPE_DEFINITION ' GES AMEND_PHASE_DESCRIPTION BCC_4SL DIS_PART BCC_A2,,,!
 TYPE_DEFINITION ^ GES A_P_D BCC_4SL MAGNETIC  -1.0    4.00000E-01 ! 
 PHASE BCC_4SL %'^  5 .25   .25   .25   .25   3 !
    CONSTITUENT BCC_4SL :AL,FE : AL,FE : AL,FE : AL,FE : C,VA :  !

   PARAMETER G(BCC_4SL,AL:AL:AL:AL:C;0)   298.15 +ZERO#; 6000 N RCON08 !
   PARAMETER G(BCC_4SL,AL:AL:AL:FE:C;0)   298.15 +ZERO#; 6000 N RCON08 !
   PARAMETER G(BCC_4SL,AL:AL:FE:AL:C;0)   298.15 +ZERO#; 6000 N RCON08 !
   PARAMETER G(BCC_4SL,AL:FE:AL:AL:C;0)   298.15 +ZERO#; 6000 N RCON08 !
   PARAMETER G(BCC_4SL,FE:AL:AL:AL:C;0)   298.15 +ZERO#; 6000 N RCON08 !
   PARAMETER G(BCC_4SL,AL:AL:FE:FE:C;0)   298.15 +ZERO#; 6000 N RCON08 !
   PARAMETER G(BCC_4SL,FE:FE:AL:AL:C;0)   298.15 +ZERO#; 6000 N RCON08 !  
   PARAMETER G(BCC_4SL,AL:FE:AL:FE:C;0)   298.15 +ZERO#; 6000 N RCON08 !
   PARAMETER G(BCC_4SL,AL:FE:FE:AL:C;0)   298.15 +ZERO#; 6000 N RCON08 !
   PARAMETER G(BCC_4SL,FE:AL:AL:FE:C;0)   298.15 +ZERO#; 6000 N RCON08 !
   PARAMETER G(BCC_4SL,FE:AL:FE:AL:C;0)   298.15 +ZERO#; 6000 N RCON08 !   
   PARAMETER G(BCC_4SL,AL:FE:FE:FE:C;0)   298.15 +ZERO#; 6000 N RCON08 !
   PARAMETER G(BCC_4SL,FE:AL:FE:FE:C;0)   298.15 +ZERO#; 6000 N RCON08 !   
   PARAMETER G(BCC_4SL,FE:FE:AL:FE:C;0)   298.15 +ZERO#; 6000 N RCON08 !   
   PARAMETER G(BCC_4SL,FE:FE:FE:AL:C;0)   298.15 +ZERO#; 6000 N RCON08 !
   PARAMETER G(BCC_4SL,FE:FE:FE:FE:C;0)   298.15 +ZERO#; 6000 N RCON08 !
   PARAMETER G(BCC_4SL,AL:AL:AL:AL:VA;0)  298.15 +ZERO#; 6000 N RSUN09 !
   PARAMETER G(BCC_4SL,AL:AL:AL:FE:VA;0)  298.15 +GD03ALFE#; 6000 N RZHE16 !
   PARAMETER TC(BCC_4SL,AL:AL:AL:FE:VA;0) 298.15 -125; 6000 N RSUN09 !
   PARAMETER BMAGN(BCC_4SL,AL:AL:AL:FE:VA;0) 298.15 +BMALFE#; 6000 N RSUN09 !
   PARAMETER G(BCC_4SL,AL:AL:FE:AL:VA;0)  298.15 +GD03ALFE#; 6000 N RZHE16 !
   PARAMETER TC(BCC_4SL,AL:AL:FE:AL:VA;0) 298.15 -125; 6000 N RSUN09 !
   PARAMETER BMAGN(BCC_4SL,AL:AL:FE:AL:VA;0) 298.15 +BMALFE#; 6000 N RSUN09 !   
   PARAMETER G(BCC_4SL,AL:FE:AL:AL:VA;0)  298.15 +GD03ALFE#; 6000 N RZHE16 !
   PARAMETER TC(BCC_4SL,AL:FE:AL:AL:VA;0) 298.15 -125; 6000 N RSUN09 !
   PARAMETER BMAGN(BCC_4SL,AL:FE:AL:AL:VA;0) 298.15 +BMALFE#; 6000 N RSUN09 !   
   PARAMETER G(BCC_4SL,FE:AL:AL:AL:VA;0)  298.15 +GD03ALFE#; 6000 N RZHE16 !
   PARAMETER TC(BCC_4SL,FE:AL:AL:AL:VA;0) 298.15 -125; 6000 N RSUN09 !
   PARAMETER BMAGN(BCC_4SL,FE:AL:AL:AL:VA;0) 298.15 +BMALFE#; 6000 N RSUN09 !  
   PARAMETER G(BCC_4SL,AL:AL:FE:FE:VA;0)  298.15 +GB2ALFE#; 6000 N RZHE16 !
   PARAMETER TC(BCC_4SL,AL:AL:FE:FE:VA;0) 298.15 -250; 6000 N RSUN09 !
   PARAMETER BMAGN(BCC_4SL,AL:AL:FE:FE:VA;0) 298.15 +2*BMALFE#;
  6000 N RSUN09 !   
   PARAMETER G(BCC_4SL,FE:FE:AL:AL:VA;0)  298.15 +GB2ALFE#; 6000 N RZHE16 !
   PARAMETER TC(BCC_4SL,FE:FE:AL:AL:VA;0) 298.15 -250; 6000 N RSUN09 !
   PARAMETER BMAGN(BCC_4SL,FE:FE:AL:AL:VA;0) 298.15 +2*BMALFE#;
  6000 N RSUN09 !   
   PARAMETER G(BCC_4SL,AL:FE:AL:FE:VA;0)  298.15 +GB32ALFE#; 6000 N RZHE16 !
   PARAMETER TC(BCC_4SL,AL:FE:AL:FE:VA;0) 298.15 -125; 6000 N RSUN09 !
   PARAMETER BMAGN(BCC_4SL,AL:FE:AL:FE:VA;0) 298.15 +BMALFE#; 6000 N RSUN09 !   
   PARAMETER G(BCC_4SL,AL:FE:FE:AL:VA;0)  298.15 +GB32ALFE#; 6000 N RZHE16 !
   PARAMETER TC(BCC_4SL,AL:FE:FE:AL:VA;0) 298.15 -125; 6000 N RSUN09 !
   PARAMETER BMAGN(BCC_4SL,AL:FE:FE:AL:VA;0) 298.15 +BMALFE#; 6000 N RSUN09 !   
   PARAMETER G(BCC_4SL,FE:AL:AL:FE:VA;0)  298.15 +GB32ALFE#; 6000 N RZHE16 !
   PARAMETER TC(BCC_4SL,FE:AL:AL:FE:VA;0) 298.15 -125; 6000 N RSUN09 !
   PARAMETER BMAGN(BCC_4SL,FE:AL:AL:FE:VA;0) 298.15 +BMALFE#; 6000 N RSUN09 !   
   PARAMETER G(BCC_4SL,FE:AL:FE:AL:VA;0)  298.15 +GB32ALFE#; 6000 N RZHE16 !
   PARAMETER TC(BCC_4SL,FE:AL:FE:AL:VA;0) 298.15 -125; 6000 N RSUN09 !
   PARAMETER BMAGN(BCC_4SL,FE:AL:FE:AL:VA;0) 298.15 +BMALFE#; 6000 N RSUN09 !   
   PARAMETER G(BCC_4SL,AL:FE:FE:FE:VA;0)  298.15 +GD03FEAL#; 6000 N RZHE16 !
   PARAMETER TC(BCC_4SL,AL:FE:FE:FE:VA;0) 298.15 -125; 6000 N RSUN09 !
   PARAMETER BMAGN(BCC_4SL,AL:FE:FE:FE:VA;0) 298.15 +BMALFE#; 6000 N RSUN09 !   
   PARAMETER G(BCC_4SL,FE:AL:FE:FE:VA;0)  298.15 +GD03FEAL#; 6000 N RZHE16 !
   PARAMETER TC(BCC_4SL,FE:AL:FE:FE:VA;0) 298.15 -125; 6000 N RSUN09 !
   PARAMETER BMAGN(BCC_4SL,FE:AL:FE:FE:VA;0) 298.15 +BMALFE#; 6000 N RSUN09 !  
   PARAMETER G(BCC_4SL,FE:FE:AL:FE:VA;0)  298.15 +GD03FEAL#; 6000 N RZHE16 !
   PARAMETER TC(BCC_4SL,FE:FE:AL:FE:VA;0) 298.15 -125; 6000 N RSUN09 !
   PARAMETER BMAGN(BCC_4SL,FE:FE:AL:FE:VA;0) 298.15 +BMALFE#; 6000 N RSUN09 !  
   PARAMETER G(BCC_4SL,FE:FE:FE:AL:VA;0)  298.15 +GD03FEAL#; 6000 N RZHE16 !
   PARAMETER TC(BCC_4SL,FE:FE:FE:AL:VA;0) 298.15 -125; 6000 N RSUN09 !
   PARAMETER BMAGN(BCC_4SL,FE:FE:FE:AL:VA;0) 298.15 +BMALFE#; 6000 N RSUN09 !  
   PARAMETER G(BCC_4SL,FE:FE:FE:FE:VA;0)  298.15 +ZERO#; 6000 N RSUN09 !
   PARAMETER TC(BCC_4SL,AL,FE:*:*:*:VA;0) 298.15 +125; 6000 N RSUN09 !
   PARAMETER BMAGN(BCC_4SL,AL,FE:*:*:*:VA;0) 298.15 +BLALFE0#;
  6000 N RSUN09 !
   PARAMETER BMAGN(BCC_4SL,AL,FE:*:*:*:VA;1) 298.15 +BLALFE1#;
  6000 N RSUN09 !
   PARAMETER BMAGN(BCC_4SL,AL,FE:*:*:*:VA;2) 298.15 +BLALFE2#;
  6000 N RSUN09 !
   PARAMETER G(BCC_4SL,AL,FE:*:*:*:VA;1)  298.15 -634+.68*T; 6000 N RSUN09 !
   PARAMETER G(BCC_4SL,AL,FE:*:*:*:VA;2)  298.15 -190; 6000 N RSUN09 !
   PARAMETER TC(BCC_4SL,*:AL,FE:*:*:VA;0) 298.15 +125; 6000 N RSUN09 !
   PARAMETER BMAGN(BCC_4SL,*:AL,FE:*:*:VA;0) 298.15 +BLALFE0#;
  6000 N RSUN09 !
   PARAMETER BMAGN(BCC_4SL,*:AL,FE:*:*:VA;1) 298.15 +BLALFE1#;
  6000 N RSUN09 !
   PARAMETER BMAGN(BCC_4SL,*:AL,FE:*:*:VA;2) 298.15 +BLALFE2#;
  6000 N RSUN09 !
   PARAMETER G(BCC_4SL,*:AL,FE:*:*:VA;1)  298.15 -634+.68*T; 6000 N RSUN09 !
   PARAMETER G(BCC_4SL,*:AL,FE:*:*:VA;2)  298.15 -190; 6000 N RSUN09 !   
   PARAMETER TC(BCC_4SL,*:*:AL,FE:*:VA;0) 298.15 +125; 6000 N RSUN09 !
   PARAMETER BMAGN(BCC_4SL,*:*:AL,FE:*:VA;0) 298.15 +BLALFE0#;
  6000 N RSUN09 !
   PARAMETER BMAGN(BCC_4SL,*:*:AL,FE:*:VA;1) 298.15 +BLALFE1#;
  6000 N RSUN09 !
   PARAMETER BMAGN(BCC_4SL,*:*:AL,FE:*:VA;2) 298.15 +BLALFE2#;
  6000 N RSUN09 !
   PARAMETER G(BCC_4SL,*:*:AL,FE:*:VA;1)  298.15 -634+.68*T; 6000 N RSUN09 !
   PARAMETER G(BCC_4SL,*:*:AL,FE:*:VA;2)  298.15 -190; 6000 N RSUN09 !   
   PARAMETER TC(BCC_4SL,*:*:*:AL,FE:VA;0) 298.15 +125; 6000 N RSUN09 !
   PARAMETER BMAGN(BCC_4SL,*:*:*:AL,FE:VA;0) 298.15 +BLALFE0#;
  6000 N RSUN09 !
   PARAMETER BMAGN(BCC_4SL,*:*:*:AL,FE:VA;1) 298.15 +BLALFE1#;
  6000 N RSUN09 !
   PARAMETER BMAGN(BCC_4SL,*:*:*:AL,FE:VA;2) 298.15 +BLALFE2#;
  6000 N RSUN09 !
   PARAMETER G(BCC_4SL,*:*:*:AL,FE:VA;1)  298.15 -634+.68*T; 6000 N RSUN09 !
   PARAMETER G(BCC_4SL,*:*:*:AL,FE:VA;2)  298.15 -190; 6000 N RSUN09 !
   
 
$ THIS PHASE HAS A DISORDERED CONTRIBUTION FROM BCC_A2                  
 TYPE_DEFINITION ) GES AMEND_PHASE_DESCRIPTION BCC_B2 DIS_PART BCC_A2,,,!
 TYPE_DEFINITION * GES A_P_D BCC_B2 MAGNETIC  -1.0    4.00000E-01 !
 PHASE BCC_B2  %)*  3 .5   .5   3 !
    CONSTITUENT BCC_B2  :AL%,FE : AL,FE% : C,VA% :  !

   PARAMETER G(BCC_B2,AL:AL:C;0)          298.15 +ZERO#; 6000 N RCON08 !
   PARAMETER G(BCC_B2,FE:AL:C;0)          298.15 +ZERO#; 6000 N RCON08 !
   PARAMETER G(BCC_B2,AL:FE:C;0)          298.15 +ZERO#; 6000 N RCON08 !
   PARAMETER G(BCC_B2,FE:FE:C;0)          298.15 +ZERO#; 6000 N RCON08 !
   PARAMETER G(BCC_B2,AL:AL:VA;0)         298.15 +ZERO#; 6000 N RSUN09 !
   PARAMETER G(BCC_B2,FE:AL:VA;0)         298.15 +GB2ALFE#; 6000 N RZHE16 !
   PARAMETER TC(BCC_B2,FE:AL:VA;0)        298.15 -250; 6000 N RSUN09 !
   PARAMETER BMAGN(BCC_B2,FE:AL:VA;0)     298.15 +2*BMALFE#; 6000 N RSUN09 !
   PARAMETER G(BCC_B2,AL:FE:VA;0)         298.15 +GB2ALFE#; 6000 N RZHE16 !
   PARAMETER TC(BCC_B2,AL:FE:VA;0)        298.15 -250; 6000 N RSUN09 !
   PARAMETER BMAGN(BCC_B2,AL:FE:VA;0)     298.15 +2*BMALFE#; 6000 N RSUN09 !
   PARAMETER G(BCC_B2,FE:FE:VA;0)         298.15 +ZERO#; 6000 N RSUN09 !
   PARAMETER G(BCC_B2,AL,FE:AL:VA;0)      298.15 +5600; 6000 N RSUN09 !
   PARAMETER G(BCC_B2,AL,FE:AL,FE:VA;0)   298.15 -8400-4.8*T; 6000 N RSUN09 !
   PARAMETER G(BCC_B2,AL:AL,FE:VA;0)      298.15 +5600; 6000 N RSUN09 !
   PARAMETER G(BCC_B2,FE:AL,FE:VA;0)      298.15 -1400+2.4*T; 6000 N RSUN09 !
   PARAMETER G(BCC_B2,AL,FE:FE:VA;0)      298.15 -1400+2.4*T; 6000 N RSUN09 !
   PARAMETER G(BCC_B2,AL,FE:*:VA;0)       298.15 +2*UBALFE2#; 6000 N RSUN09 !
   PARAMETER G(BCC_B2,AL,FE:*:VA;1)       298.15 +120; 6000 N RZHE16 !
   PARAMETER G(BCC_B2,AL,FE:*:VA;2)       298.15 -520; 6000 N RZHE16 !
   PARAMETER TC(BCC_B2,AL,FE:*:VA;0)      298.15 +250; 6000 N RSUN09 !
   PARAMETER BMAGN(BCC_B2,AL,FE:*:VA;0)   298.15 +2*BLALFE0#; 6000 N RSUN09 !
   PARAMETER BMAGN(BCC_B2,AL,FE:*:VA;1)   298.15 +2*BLALFE1#; 6000 N RSUN09 !
   PARAMETER BMAGN(BCC_B2,AL,FE:*:VA;2)   298.15 +2*BLALFE2#; 6000 N RSUN09 !
   PARAMETER G(BCC_B2,*:AL,FE:VA;0)       298.15 +2*UBALFE2#; 6000 N RSUN09 !
   PARAMETER G(BCC_B2,*:AL,FE:VA;1)       298.15 +120; 6000 N RZHE16 !
   PARAMETER G(BCC_B2,*:AL,FE:VA;2)       298.15 -520; 6000 N RZHE16 !
   PARAMETER TC(BCC_B2,*:AL,FE:VA;0)      298.15 +250; 6000 N RSUN09 !
   PARAMETER BMAGN(BCC_B2,*:AL,FE:VA;0)   298.15 +2*BLALFE0#; 6000 N RSUN09 !
   PARAMETER BMAGN(BCC_B2,*:AL,FE:VA;1)   298.15 +2*BLALFE1#; 6000 N RSUN09 !
   PARAMETER BMAGN(BCC_B2,*:AL,FE:VA;2)   298.15 +2*BLALFE2#; 6000 N RSUN09 !


 PHASE CEMENTITE  %  2 3   1 !
    CONSTITUENT CEMENTITE  :FE : C :  !

   PARAMETER G(CEMENTITE,FE:C;0)          298.15 +GFECEM#; 6000 N RGUS85 !

   
 TYPE_DEFINITION . GES A_P_D FCC_A1 MAGNETIC  -3.0    2.80000E-01 !
 PHASE FCC_A1  %.  2 1   1 !
    CONSTITUENT FCC_A1  :AL,FE% : C,VA% :  !

   PARAMETER G(FCC_A1,AL:C;0)             298.15 +GHSERAL#+GHSERCC#+81000; 
  6000 N RCON08 !
   PARAMETER G(FCC_A1,FE:C;0)             298.15 +77207-15.877*T+GFEFCC#
  +GHSERCC#; 6000 N RGUS85 !
   PARAMETER TC(FCC_A1,FE:C;0)            298.15 -201; 6000 N RGUS85 !
   PARAMETER BMAGN(FCC_A1,FE:C;0)         298.15 -2.1; 6000 N RGUS85 !
   PARAMETER G(FCC_A1,AL:VA;0)            298.15 +GHSERAL#; 6000 N RDIN91 !
   PARAMETER G(FCC_A1,FE:VA;0)            298.15 +GFEFCC#; 6000 N RDIN91 !
   PARAMETER TC(FCC_A1,FE:VA;0)           298.15 -201; 6000 N RDIN91 !
   PARAMETER BMAGN(FCC_A1,FE:VA;0)        298.15 -2.1; 6000 N RDIN91 !
   PARAMETER G(FCC_A1,AL,FE:C;0)          298.15 -229071+147*T;
  6000 N RZHE16 !
   PARAMETER G(FCC_A1,AL:C,VA;0)          298.15 -80000+8*T; 6000 N RCON08 !
   PARAMETER G(FCC_A1,FE:C,VA;0)          298.15 -34671; 6000 N RGUS85 !
   PARAMETER G(FCC_A1,AL,FE:VA;0)         298.15 +LFALFE0#; 6000 N RZHE16 !
   PARAMETER G(FCC_A1,AL,FE:VA;1)         298.15 +LFALFE1#; 6000 N RZHE16 !
   PARAMETER G(FCC_A1,AL,FE:VA;2)         298.15 +LFALFE2#; 6000 N RZHE16 !

  
$ THIS PHASE HAS A DISORDERED CONTRIBUTION FROM FCC_A1    
 TYPE_DEFINITION - GES AMEND_PHASE_DESCRIPTION FCC_4SL DIS_PART FCC_A1,,,!              
 TYPE_DEFINITION + GES A_P_D FCC_4SL MAGNETIC  -3.0    2.80000E-01 !
 PHASE FCC_4SL %-+  5 .25   .25   .25   .25   1 !
    CONSTITUENT FCC_4SL :AL,FE : AL,FE : AL,FE : AL,FE : C,VA :  !

   PARAMETER G(FCC_4SL,AL:AL:AL:AL:C;0)   298.15 +ZERO#; 6000 N RCON08 !
   PARAMETER G(FCC_4SL,AL:AL:AL:FE:C;0)   298.15 +ZERO#; 6000 N RCON08 !
   PARAMETER G(FCC_4SL,AL:AL:FE:AL:C;0)   298.15 +ZERO#; 6000 N RCON08 !
   PARAMETER G(FCC_4SL,AL:FE:AL:AL:C;0)   298.15 +ZERO#; 6000 N RCON08 !   
   PARAMETER G(FCC_4SL,FE:AL:AL:AL:C;0)   298.15 +ZERO#; 6000 N RCON08 !   
   PARAMETER G(FCC_4SL,AL:AL:FE:FE:C;0)   298.15 +ZERO#; 6000 N RCON08 !   
   PARAMETER G(FCC_4SL,FE:FE:AL:AL:C;0)   298.15 +ZERO#; 6000 N RCON08 !   
   PARAMETER G(FCC_4SL,AL:FE:AL:FE:C;0)   298.15 +ZERO#; 6000 N RCON08 !   
   PARAMETER G(FCC_4SL,AL:FE:FE:AL:C;0)   298.15 +ZERO#; 6000 N RCON08 !    
   PARAMETER G(FCC_4SL,FE:AL:AL:FE:C;0)   298.15 +ZERO#; 6000 N RCON08 ! 
   PARAMETER G(FCC_4SL,FE:AL:FE:AL:C;0)   298.15 +ZERO#; 6000 N RCON08 !    
   PARAMETER G(FCC_4SL,AL:FE:FE:FE:C;0)   298.15 +ZERO#; 6000 N RCON08 !   
   PARAMETER G(FCC_4SL,FE:AL:FE:FE:C;0)   298.15 +ZERO#; 6000 N RCON08 !   
   PARAMETER G(FCC_4SL,FE:FE:AL:FE:C;0)   298.15 +ZERO#; 6000 N RCON08 !   
   PARAMETER G(FCC_4SL,FE:FE:FE:AL:C;0)   298.15 +ZERO#; 6000 N RCON08 !   
   PARAMETER G(FCC_4SL,FE:FE:FE:FE:C;0)   298.15 +ZERO#; 6000 N RCON08 !
   PARAMETER G(FCC_4SL,AL:AL:AL:AL:VA;0)  298.15 +ZERO#; 6000 N RZHE16 !
   PARAMETER G(FCC_4SL,AL:AL:AL:FE:VA;0)  298.15 +GAL3FE#; 6000 N RZHE16 !
   PARAMETER G(FCC_4SL,AL:AL:FE:AL:VA;0)  298.15 +GAL3FE#; 6000 N RZHE16 !   
   PARAMETER G(FCC_4SL,AL:FE:AL:AL:VA;0)  298.15 +GAL3FE#; 6000 N RZHE16 !   
   PARAMETER G(FCC_4SL,FE:AL:AL:AL:VA;0)  298.15 +GAL3FE#; 6000 N RZHE16 !
   PARAMETER G(FCC_4SL,AL:AL:FE:FE:VA;0)  298.15 +GAL2FE2#; 6000 N RZHE16 !
   PARAMETER G(FCC_4SL,FE:FE:AL:AL:VA;0)  298.15 +GAL2FE2#; 6000 N RZHE16 !   
   PARAMETER G(FCC_4SL,AL:FE:AL:FE:VA;0)  298.15 +GAL2FE2#; 6000 N RZHE16 !   
   PARAMETER G(FCC_4SL,AL:FE:FE:AL:VA;0)  298.15 +GAL2FE2#; 6000 N RZHE16 !   
   PARAMETER G(FCC_4SL,FE:AL:AL:FE:VA;0)  298.15 +GAL2FE2#; 6000 N RZHE16 !   
   PARAMETER G(FCC_4SL,FE:AL:FE:AL:VA;0)  298.15 +GAL2FE2#; 6000 N RZHE16 !   
   PARAMETER G(FCC_4SL,AL:FE:FE:FE:VA;0)  298.15 +GALFE3#; 6000 N RZHE16 !
   PARAMETER G(FCC_4SL,FE:AL:FE:FE:VA;0)  298.15 +GALFE3#; 6000 N RZHE16 !   
   PARAMETER G(FCC_4SL,FE:FE:AL:FE:VA;0)  298.15 +GALFE3#; 6000 N RZHE16 !   
   PARAMETER G(FCC_4SL,FE:FE:FE:AL:VA;0)  298.15 +GALFE3#; 6000 N RZHE16 !   
   PARAMETER G(FCC_4SL,FE:FE:FE:FE:VA;0)  298.15 +ZERO#; 6000 N RZHE16 !
   PARAMETER G(FCC_4SL,AL,FE:AL,FE:*:*:VA;0) 298.15 +SROALFE#; 6000 N RZHE16 !
   PARAMETER G(FCC_4SL,*:*:AL,FE:AL,FE:VA;0) 298.15 +SROALFE#; 6000 N RZHE16 !
   PARAMETER G(FCC_4SL,AL,FE:*:AL,FE:*:VA;0) 298.15 +SROALFE#; 6000 N RZHE16 !
   PARAMETER G(FCC_4SL,AL,FE:*:*:AL,FE:VA;0) 298.15 +SROALFE#; 6000 N RZHE16 !   
   PARAMETER G(FCC_4SL,*:AL,FE:AL,FE:*:VA;0) 298.15 +SROALFE#; 6000 N RZHE16 !   
   PARAMETER G(FCC_4SL,*:AL,FE:*:AL,FE:VA;0) 298.15 +SROALFE#; 6000 N RZHE16 !   
   
   
 PHASE GRAPHITE  %  1  1.0  !
    CONSTITUENT GRAPHITE  :C :  !

   PARAMETER G(GRAPHITE,C;0)              298.15 +GHSERCC#; 6000 N RDIN91 !


$ THIS PHASE HAS A DISORDERED CONTRIBUTION FROM A1_KAPPA            
 TYPE_DEFINITION / GES A_P_D KAPPA DIS_PART A1_KAPPA,,,!
 TYPE_DEFINITION 0 GES A_P_D KAPPA MAGNETIC  -3.0    2.80000E-01 !
 PHASE KAPPA %/0  5 .25   .25   .25   .25   .25 !
    CONSTITUENT KAPPA :AL%,FE : AL,FE% : AL,FE% : AL,FE% : C%,VA :  !

   PARAMETER G(KAPPA,AL:AL:AL:AL:C;0)     298.15 +ZERO#; 6000 N RZHE16 !
   PARAMETER G(KAPPA,AL:AL:AL:FE:C;0)     298.15 +GKAL3FEC#; 6000 N RZHE16 !
   PARAMETER G(KAPPA,AL:AL:FE:AL:C;0)     298.15 +GKAL3FEC#; 6000 N RZHE16 !
   PARAMETER G(KAPPA,AL:FE:AL:AL:C;0)     298.15 +GKAL3FEC#; 6000 N RZHE16 !
   PARAMETER G(KAPPA,FE:AL:AL:AL:C;0)     298.15 +GKAL3FEC#; 6000 N RZHE16 !
   PARAMETER G(KAPPA,AL:AL:FE:FE:C;0)     298.15 +GKAL2FE2#; 6000 N RZHE16 !
   PARAMETER G(KAPPA,FE:FE:AL:AL:C;0)     298.15 +GKAL2FE2#; 6000 N RZHE16 !
   PARAMETER G(KAPPA,AL:FE:AL:FE:C;0)     298.15 +GKAL2FE2#; 6000 N RZHE16 !
   PARAMETER G(KAPPA,AL:FE:FE:AL:C;0)     298.15 +GKAL2FE2#; 6000 N RZHE16 !
   PARAMETER G(KAPPA,FE:AL:AL:FE:C;0)     298.15 +GKAL2FE2#; 6000 N RZHE16 !
   PARAMETER G(KAPPA,FE:AL:FE:AL:C;0)     298.15 +GKAL2FE2#; 6000 N RZHE16 !
   PARAMETER G(KAPPA,AL:FE:FE:FE:C;0)     298.15 +GKALFE3C#; 6000 N RZHE16 !
   PARAMETER G(KAPPA,FE:AL:FE:FE:C;0)     298.15 +GKALFE3C#; 6000 N RZHE16 !
   PARAMETER G(KAPPA,FE:FE:AL:FE:C;0)     298.15 +GKALFE3C#; 6000 N RZHE16 !
   PARAMETER G(KAPPA,FE:FE:FE:AL:C;0)     298.15 +GKALFE3C#; 6000 N RZHE16 !
   PARAMETER G(KAPPA,FE:FE:FE:FE:C;0)     298.15 +ZERO#; 6000 N RZHE16 !
   PARAMETER G(KAPPA,AL:AL:AL:AL:VA;0)    298.15 +ZERO#; 6000 N RZHE16 !
   PARAMETER G(KAPPA,AL:AL:AL:FE:VA;0)    298.15 +GAL3FE#; 6000 N RZHE16 !
   PARAMETER G(KAPPA,AL:AL:FE:AL:VA;0)    298.15 +GAL3FE#; 6000 N RZHE16 !
   PARAMETER G(KAPPA,AL:FE:AL:AL:VA;0)    298.15 +GAL3FE#; 6000 N RZHE16 !
   PARAMETER G(KAPPA,FE:AL:AL:AL:VA;0)    298.15 +GAL3FE#; 6000 N RZHE16 !
   PARAMETER G(KAPPA,AL:AL:FE:FE:VA;0)    298.15 +GAL2FE2#; 6000 N RZHE16 !
   PARAMETER G(KAPPA,FE:FE:AL:AL:VA;0)    298.15 +GAL2FE2#; 6000 N RZHE16 !
   PARAMETER G(KAPPA,AL:FE:AL:FE:VA;0)    298.15 +GAL2FE2#; 6000 N RZHE16 !
   PARAMETER G(KAPPA,AL:FE:FE:AL:VA;0)    298.15 +GAL2FE2#; 6000 N RZHE16 !
   PARAMETER G(KAPPA,FE:AL:AL:FE:VA;0)    298.15 +GAL2FE2#; 6000 N RZHE16 !
   PARAMETER G(KAPPA,FE:AL:FE:AL:VA;0)    298.15 +GAL2FE2#; 6000 N RZHE16 !
   PARAMETER G(KAPPA,AL:FE:FE:FE:VA;0)    298.15 +GALFE3#; 6000 N RZHE16 !
   PARAMETER G(KAPPA,FE:AL:FE:FE:VA;0)    298.15 +GALFE3#; 6000 N RZHE16 !
   PARAMETER G(KAPPA,FE:FE:AL:FE:VA;0)    298.15 +GALFE3#; 6000 N RZHE16 !
   PARAMETER G(KAPPA,FE:FE:FE:AL:VA;0)    298.15 +GALFE3#; 6000 N RZHE16 !
   PARAMETER G(KAPPA,FE:FE:FE:FE:VA;0)    298.15 +ZERO#; 6000 N RZHE16 !
   PARAMETER G(KAPPA,AL,FE:AL,FE:FE:FE:C;0) 298.15 +RECALFE#; 6000 N RZHE16 !
   PARAMETER G(KAPPA,FE:FE:AL,FE:AL,FE:C;0) 298.15 +RECALFE#; 6000 N RZHE16 !
   PARAMETER G(KAPPA,AL,FE:FE:AL,FE:FE:C;0) 298.15 +RECALFE#; 6000 N RZHE16 !
   PARAMETER G(KAPPA,AL,FE:FE:FE:AL,FE:C;0) 298.15 +RECALFE#; 6000 N RZHE16 !
   PARAMETER G(KAPPA,FE:AL,FE:AL,FE:FE:C;0) 298.15 +RECALFE#; 6000 N RZHE16 !
   PARAMETER G(KAPPA,FE:AL,FE:FE:AL,FE:C;0) 298.15 +RECALFE#; 6000 N RZHE16 !
   PARAMETER G(KAPPA,AL,FE:FE:FE:FE:C,VA;0) 298.15 +RECAFCV#; 6000 N RZHE16 !
   PARAMETER G(KAPPA,FE:AL,FE:FE:FE:C,VA;0) 298.15 +RECAFCV#; 6000 N RZHE16 !
   PARAMETER G(KAPPA,FE:FE:AL,FE:FE:C,VA;0) 298.15 +RECAFCV#; 6000 N RZHE16 !
   PARAMETER G(KAPPA,FE:FE:FE:AL,FE:C,VA;0) 298.15 +RECAFCV#; 6000 N RZHE16 !
   PARAMETER G(KAPPA,AL:FE:FE:FE:C,VA;0)  298.15 +KL0CVA#; 6000 N RZHE16 !
   PARAMETER G(KAPPA,FE:AL:FE:FE:C,VA;0)  298.15 +KL0CVA#; 6000 N RZHE16 !
   PARAMETER G(KAPPA,FE:FE:AL:FE:C,VA;0)  298.15 +KL0CVA#; 6000 N RZHE16 !
   PARAMETER G(KAPPA,FE:FE:FE:AL:C,VA;0)  298.15 +KL0CVA#; 6000 N RZHE16 !
   PARAMETER G(KAPPA,AL,FE:AL,FE:*:*:VA;0) 298.15 +SROALFE#; 6000 N RZHE16 !
   PARAMETER G(KAPPA,*:*:AL,FE:AL,FE:VA;0) 298.15 +SROALFE#; 6000 N RZHE16 !
   PARAMETER G(KAPPA,AL,FE:*:AL,FE:*:VA;0) 298.15 +SROALFE#; 6000 N RZHE16 !
   PARAMETER G(KAPPA,AL,FE:*:*:AL,FE:VA;0) 298.15 +SROALFE#; 6000 N RZHE16 !
   PARAMETER G(KAPPA,*:AL,FE:AL,FE:*:VA;0) 298.15 +SROALFE#; 6000 N RZHE16 !
   PARAMETER G(KAPPA,*:AL,FE:*:AL,FE:VA;0) 298.15 +SROALFE#; 6000 N RZHE16 !

 LIST_OF_REFERENCES
 NUMBER  SOURCE
   RGUS85   'P. Gustafson, Scan. J. Metall., 14(1985)259-267'
   RDIN91   'A.T. Dinsdale, Calphad, 15(1991)317-425'
   RGRO96   'J. GrObner, H.L. Lukas and F. Aldinger, Calphad, 20(1996)
           247-254'
   RCON08   'D. Connetable, J. Lacaze, P. Maugis, et al, Calphad,
           32(2008)361-370'
   RSUN09   'B. Sundman, I. Ohnuma, N. Dupin, et al, Acta Meter., 57(2009)
           2986-2908'
   RZHE16   'This work'
  ! 
 
