
$ Database file written 5 June
$ From database: User data 2016.06.05
  
 ELEMENT /-   ELECTRON_GAS              0.0000E+00  0.0000E+00  0.0000E+00!
 ELEMENT VA   VACUUM                    0.0000E+00  0.0000E+00  0.0000E+00!
 ELEMENT CA   FCC_A1                    4.0080E+01  5.7360E+03  4.1588E+01!
 ELEMENT O    1/2_MOLE_O2(G)            1.5999E+01  4.3410E+03  1.0252E+02!
 ELEMENT V    BCC_A2                    5.0941E+01  4.5070E+03  3.0890E+01!
 
 SPECIES CA+2                        CA1/+2!
 SPECIES CA1O1                       CA1O1!
 SPECIES CA1O2                       CA1O2!
 SPECIES CA1O6V2                     CA1O6V2!
 SPECIES CA2                         CA2!
 SPECIES CA2O7V2                     CA2O7V2!
 SPECIES CA3O8V2                     CA3O8V2!
 SPECIES CAO                         CA1O1!
 SPECIES CAV2O5                      CA1O5V2!
 SPECIES O-2                         O1/-2!
 SPECIES O10V4                       O10V4!
 SPECIES O1V1                        O1V1!
 SPECIES O2                          O2!
 SPECIES O2V1                        O2V1!
 SPECIES O3                          O3!
 SPECIES O4V2                        O4V2!
 SPECIES V+2                         V1/+2!
 SPECIES V+3                         V1/+3!
 SPECIES V+4                         V1/+4!
 SPECIES V+5                         V1/+5!
 SPECIES V2O3                        O3V2!
 SPECIES V2O4                        O4V2!
 SPECIES V2O5                        O5V2!
 SPECIES V39O61                      O61V39!
 SPECIES VA-2                        VA1/-2!
 SPECIES VO2                         O2V1!
 SPECIES VO3/2                       O1.5V1!
 SPECIES VO5/2                       O2.5V1!
 
   
 FUNCTION F13634T   298.15 +243206.494-20.8612587*T-21.01555*T*LN(T)
     +1.2687055E-04*T**2-1.23131283E-08*T**3-42897.09*T**(-1); 2950 Y
      +252301.423-52.0847285*T-17.21188*T*LN(T)-5.413565E-04*T**2
     +7.64520667E-09*T**3-3973170.5*T**(-1); 6000 N !
 FUNCTION F14003T   298.15 -6960.69252-51.1831473*T-22.25862*T*LN(T)
     -.01023867*T**2+1.339947E-06*T**3-76749.55*T**(-1); 900 Y
      -13136.0172+24.743296*T-33.55726*T*LN(T)-.0012348985*T**2
     +1.66943333E-08*T**3+539886*T**(-1); 3700 Y
      +14154.6461-51.4854586*T-24.47978*T*LN(T)-.002634759*T**2
     +6.01544333E-08*T**3-15120935*T**(-1); 9600 Y
      -314316.628+515.068037*T-87.56143*T*LN(T)+.0025787245*T**2
     -1.878765E-08*T**3+2.9052515E+08*T**(-1); 18500 Y
      -108797.175+288.483019*T-63.737*T*LN(T)+.0014375*T**2-9E-09*T**3
     +.25153895*T**(-1); 20000 N !
 FUNCTION F14300T   298.15 +130696.944-37.9096651*T-27.58118*T*LN(T)
     -.02763076*T**2+4.60539333E-06*T**3+99530.45*T**(-1); 700 Y
      +114760.623+176.626736*T-60.10286*T*LN(T)+.00206456*T**2
     -5.17486667E-07*T**3+1572175*T**(-1); 1300 Y
      +49468.3958+710.094819*T-134.3696*T*LN(T)+.039707355*T**2
     -4.10457667E-06*T**3+12362250*T**(-1); 2100 Y
      +866367.075-3566.80563*T+421.2001*T*LN(T)-.1284109*T**2
     +5.44768833E-06*T**3-2.1304835E+08*T**(-1); 2800 Y
      +409416.384-1950.70834*T+223.4437*T*LN(T)-.0922361*T**2
     +4.306855E-06*T**3-21589870*T**(-1); 3500 Y
      -1866338.6+6101.13383*T-764.8435*T*LN(T)+.09852775*T**2
     -2.59784667E-06*T**3+9.610855E+08*T**(-1); 4900 Y
      +97590.0432+890.79836*T-149.9608*T*LN(T)+.01283575*T**2
     -3.555105E-07*T**3-2.1699975E+08*T**(-1); 6000 N !
 FUNCTION F2131T    298.15 +173087.021-15.5575325*T-20.786112*T*LN(T); 1300 Y
      +172997.956+5588.5688*T**(-1)-13.9593335*T-21.0345161*T*LN(T)
     +2.38213948E-04*T**2-3.64413151E-08*T**3; 2000 Y
      +134081.53+9296659.72*T**(-1)+218.694199*T-51.8849472*T*LN(T)
     +.0111923674*T**2-7.70260453E-07*T**3; 3600 Y
      +672690.384-2.35270504E+08*T**(-1)-1610.06137*T+171.348607*T*LN(T)
     -.0300833784*T**2+6.66115115E-07*T**3; 4800 Y
      +672623.642-2.1604084E+08*T**(-1)-1685.46289*T+181.445018*T*LN(T)
     -.032908206*T**2+7.77184973E-07*T**3; 6000 N !
 FUNCTION F2293T    298.15 +331036.623+118736.69*T**(-1)+92.462223*T
     -54.080292*T*LN(T)+.0271296836*T**2-5.73392096E-06*T**3; 600 Y
      +340712.213-633424.128*T**(-1)-59.9992293*T-30.2654661*T*LN(T)
     +5.18998004E-04*T**2-4.10068261E-08*T**3; 2200 Y
      +343774.134-1755137.79*T**(-1)-73.0668827*T-28.6059243*T*LN(T)
     +6.54369232E-05*T**2-1.34699696E-08*T**3; 6000 N !
 FUNCTION F2235T    298.15 +33470.3914+89036.566*T**(-1)-4.24066723*T
     -31.527235*T*LN(T)-.0058339604*T**2+1.02056825E-06*T**3; 800 Y
      +17473.6658+1829859.85*T**(-1)+184.18695*T-59.448364*T*LN(T)
     +.0161848208*T**2-2.29953337E-06*T**3; 1800 Y
      +265033.997-54390326.4*T**(-1)-1354.60539*T+145.754661*T*LN(T)
     -.0597157216*T**2+2.9855978E-06*T**3; 3000 Y
      -503699.701+2.29835488E+08*T**(-1)+1769.20442*T-245.333024*T*LN(T)
     +.0289800576*T**2-7.96787013E-07*T**3; 4500 Y
      +15414.741-63575670.8*T**(-1)+317.241418*T-72.7559944*T*LN(T)
     +.00342590104*T**2-8.57608427E-08*T**3; 6000 N !
 FUNCTION F13902T   298.15 -452649.127+334.032868*T-52.91877*T*LN(T)
     -.00655714*T**2+5.33969167E-11*T**3+818200*T**(-1); 2063 Y
      -459188.444+454.230294*T-70*T*LN(T); 5000 N !
 FUNCTION GV1O1_L   298.15 +F13902T#+94854-46.53*T; 6000 N !
 FUNCTION GHSERVV   298.15 -7930.43+133.346053*T-24.134*T*LN(T)-.003098*T**2
     +1.2175E-07*T**3+69460*T**(-1); 790 Y
      -7967.842+143.291093*T-25.9*T*LN(T)+6.25E-05*T**2-6.8E-07*T**3; 2183 Y
      -41689.864+321.140783*T-47.43*T*LN(T)+6.44389E+31*T**(-9); 6000 N !
 FUNCTION GVLIQ     298.15 +20764.117-9.455552*T-5.19136E-22*T**7+GHSERVV#; 
     790 Y
      +20764.117-9.455552*T-5.19136E-22*T**7+GHSERVV#; 2183 Y
      +22072.354-10.0848*T-6.44389E+31*T**(-9)+GHSERVV#; 6000 N !
 FUNCTION F14261T   298.15 -726575.928+148.606432*T-23.84754*T*LN(T)
     -.0754984*T**2+1.68293667E-05*T**3+9742.025*T**(-1); 340 Y
      -739295.718+426.904639*T-69.68954*T*LN(T)-.00841982*T**2
     +9.50542E-07*T**3+628472.5*T**(-1); 700 Y
      -741248.919+454.468286*T-73.9568*T*LN(T)-.0037019825*T**2
     -1.03988433E-07*T**3+822530.5*T**(-1); 1400 Y
      -736944.045+422.824699*T-69.61465*T*LN(T)-.00572185*T**2
     +8.000575E-08*T**3; 1818 Y
      -786400.707+718.174453*T-106.692*T*LN(T); 3000 N !
 FUNCTION GV1O2_L   298.15 +F14261T#+60532-44.0507157*T; 6000 N !
 FUNCTION F14567T   298.15 -1617720.68+1146.46372*T-190.8802*T*LN(T)
     +.04639246*T**2-1.58726633E-05*T**3+1951745.5*T**(-1); 954 Y
      -1627448.88+1182.57918*T-190*T*LN(T); 5000 N !
 FUNCTION GV2O5_L   298.15 +F14567T#+64000-67.0859539*T; 6000 N !
 FUNCTION GHSERCA   298.15 -4955.062+72.794266*T-16.3138*T*LN(T)
     -.01110455*T**2-133574*T**(-1); 1115 Y
      -107304.428+799.982066*T-114.292247*T*LN(T)+.023733814*T**2
     -1.2438E-06*T**3+18245540*T**(-1); 3000 Y
      -3703.12+192.63995*T-35*T*LN(T); 3001 N !
 FUNCTION GLIQCA    298.15 +10799.908-10.310466*T+GHSERCA#; 500 Y
      +7838.856+18.2979*T-8.9874787*T*LN(T)-.02266537*T**2+3.338303E-06*T**3
     -230193*T**(-1); 1115 Y
      -2654.938+188.9223*T-35*T*LN(T); 3001 N !
 FUNCTION GCAOLIQ   298.15 -585630.854+300.654841*T-52.862*T*LN(T)
     -1.5545E-04*T**2-1.89185E-07*T**3+489415*T**(-1); 1830 Y
      -793806.269+1510.9933*T-212.686*T*LN(T)+.0549185*T**2
     -3.789867E-06*T**3+51730500*T**(-1); 2880 Y
      -4191941.74+15458.9937*T-1961.24*T*LN(T)+.4554355*T**2
     -2.1019333E-05*T**3+1.291855E+09*T**(-1); 3172 Y
      -663523.922+573.648795*T-84*T*LN(T); 6000 N !
 FUNCTION GO2GAS    298.15 -6961.74451-76729.7484*T**(-1)-51.0057202*T
     -22.2710136*T*LN(T)-.0101977469*T**2+1.32369208E-06*T**3; 1000 Y
      -13137.5203+525809.556*T**(-1)+25.3200332*T-33.627603*T*LN(T)
     -.00119159274*T**2+1.35611111E-08*T**3; 3300 Y
      -27973.4908+8766421.4*T**(-1)+62.5195726*T-37.9072074*T*LN(T)
     -8.50483772E-04*T**2+2.14409777E-08*T**3; 6000 N !
 FUNCTION GHSEROO   298.15 +.5*GO2GAS#; 6000 N !
 FUNCTION GBCCCA    298.15 -7020.852+142.970155*T-28.2541*T*LN(T)
     +.0072326*T**2-4.500217E-06*T**3+60578*T**(-1); 716 Y
      +1640.475+1.999694*T-6.276*T*LN(T)-.0161921*T**2-523000*T**(-1); 1115 Y
      -142331.096+1023.54905*T-143.872698*T*LN(T)+.032543127*T**2
     -1.704079E-06*T**3+25353771*T**(-1); 3000 Y
      +321.63+189.433057*T-35*T*LN(T); 3001 N !
 FUNCTION GV1O1     298.15 +F13902T#; 6000 N !
 FUNCTION F14415T   298.15 -1270647.05+886.334178*T-144.3096*T*LN(T)
     +.00933134*T**2-1.81532333E-06*T**3+1722474*T**(-1); 2230 Y
      -1310233.34+1037.18289*T-160*T*LN(T); 5000 N !
 FUNCTION GV2O3     298.15 +F14415T#; 6000 N !
 FUNCTION GV2O3_L   298.15 +F14415T#+140000-62.7802691*T; 6000 N !
 FUNCTION ZERO      298.15 +0.0; 6000 N !
 FUNCTION GFCCVV    298.15 +7500+1.7*T+GHSERVV#; 6000 N !
 FUNCTION GCAOSOL   298.15 -653631.356+315.221233*T-51.8583*T*LN(T)
     -.0012193*T**2-2.4E-11*T**3+468307*T**(-1); 3172 Y
      +81436.321-2001.82115*T+227.015259*T*LN(T)-.045385463*T**2
     +1.171193E-06*T**3-3.4861455E+08*T**(-1); 6000 N !
 FUNCTION GV2O5     298.15 +F14567T#; 6000 N !
 FUNCTION GHCPVV    298.15 +4000+2.4*T+GHSERVV#; 6000 N !
 FUNCTION GV3O5_LT  298.15 +GV2O3#+GV1O2_LT#-20986; 6000 N !
 FUNCTION GV3O5_HT  298.15 +GV3O5_LT#+12499.6-29.2*T; 6000 N !
 FUNCTION GV1O2_LT  298.15 +F14261T#; 6000 N !
 FUNCTION GV1O2_HT  298.15 +F14261T#+4497.8-13.2288235*T; 6000 N !
 FUNCTION UN_ASS    298.15 +0.0; 300 N !
 FUNCTION F5985T    298.15 -2381123.18+762.147881*T-135.2269*T*LN(T)
     -.05958015*T**2; 1051 N !
 FUNCTION F6045T    298.15 -3147024.14+1006.54618*T-177.82*T*LN(T)
     -.06050065*T**2; 1288 N !
 FUNCTION F6071T    298.15 -3854673.85+1274.43719*T-226.8146*T*LN(T)
     -.05066825*T**2; 1653 N !
 FUNCTION GCAV2O5   298.15 +GCAOSOL#+2*GV1O2_LT#-118618.4; 6000 N !
 FUNCTION L0        298.15 -348516; 6000 N !
 FUNCTION L1        298.15 -180127; 6000 N !

 
 TYPE_DEFINITION % SEQ *!
 DEFINE_SYSTEM_DEFAULT ELEMENT 2 !
 DEFAULT_COMMAND DEF_SYS_ELEMENT VA /- !


 PHASE GAS:G %  1  1.0  !
    CONSTITUENT GAS:G :CA,CA2,CAO,O,O2,O3 :  !

   PARAMETER G(GAS,CA;0)                  298.15 +F2131T#+RTLNP#; 6000 N 
  REF0 !
   PARAMETER G(GAS,CA2;0)                 298.15 +F2293T#+RTLNP#; 6000 N 
  REF0 !
   PARAMETER G(GAS,CAO;0)                 298.15 +F2235T#+RTLNP#; 6000 N 
  REF0 !
   PARAMETER G(GAS,O;0)                   298.15 +F13634T#+R#*T*LN(1E-05*P); 
  6000 N REF0 !
   PARAMETER G(GAS,O2;0)                  298.15 +F14003T#+R#*T*LN(1E-05*P); 
  6000 N REF0 !
   PARAMETER G(GAS,O3;0)                  298.15 +F14300T#+R#*T*LN(1E-05*P); 
  6000 N REF0 !


 PHASE IONIC_LIQ:Y %  2 6   4 !
    CONSTITUENT IONIC_LIQ:Y :CA+2,V+2 : O-2,VA,VO2,VO3/2,VO5/2 :  !

   PARAMETER G(IONIC_LIQ,CA+2:O-2;0)      298.15 +2*GCAOLIQ#; 6000 N REF0 !
   PARAMETER G(IONIC_LIQ,V+2:O-2;0)       298.15 +2*GV1O1_L#; 6000 N REF0 !
   PARAMETER G(IONIC_LIQ,CA+2:VA;0)       298.15 +GLIQCA#; 6000 N REF0 !
   PARAMETER G(IONIC_LIQ,V+2:VA;0)        298.15 +GVLIQ#; 6000 N REF0 !
   PARAMETER G(IONIC_LIQ,VO2;0)           298.15 +GV1O2_L#+3308.6; 6000 N 
  REF0 !
   PARAMETER G(IONIC_LIQ,VO3/2;0)         298.15 +.5*GV2O3_L#; 6000 N REF0 !
   PARAMETER G(IONIC_LIQ,VO5/2;0)         298.15 +.5*GV2O5_L#; 6000 N REF0 !
   PARAMETER G(IONIC_LIQ,CA+2,V+2:O-2;0)  298.15 +L0#; 6000 N REF0 !
   PARAMETER G(IONIC_LIQ,CA+2,V+2:O-2;1)  298.15 +L1#; 6000 N REF0 !
   PARAMETER G(IONIC_LIQ,CA+2:O-2,VA;0)   298.15 +17331; 6000 N REF0 !
   PARAMETER G(IONIC_LIQ,CA+2:O-2,VO5/2;0) 298.15 -397588-88.865*T; 6000 N  !
   PARAMETER G(IONIC_LIQ,CA+2:O-2,VO5/2;1) 298.15 -65141+65.649*T; 6000 N  !
   PARAMETER G(IONIC_LIQ,CA+2:O-2,VO5/2;2) 298.15 153492-42.439*T; 6000 N  !
   PARAMETER G(IONIC_LIQ,CA+2:O-2,VO2;0)  298.15 L0#; 6000 N REF0 !
   PARAMETER G(IONIC_LIQ,CA+2:O-2,VO2;1)  298.15 L1#; 6000 N REF0 !
   PARAMETER G(IONIC_LIQ,CA+2:O-2,VO3/2;0) 298.15 L0#; 6000 N REF0 !
   PARAMETER G(IONIC_LIQ,CA+2:O-2,VO3/2;1) 298.15 L1#; 6000 N REF0 !
   PARAMETER G(IONIC_LIQ,V+2:O-2,VA;0)    298.15 -98900; 6000 N REF0 !
   PARAMETER G(IONIC_LIQ,V+2:O-2,VA;1)    298.15 +51034; 6000 N REF0 !
   PARAMETER G(IONIC_LIQ,V+2:O-2,VO3/2;0) 298.15 +1449.9-50.71*T; 6000 N 
  REF0 !
   PARAMETER G(IONIC_LIQ,CA+2,V+2:VA;0)   298.15 +173437; 6000 N REF0 !


 PHASE BCC_A2  %  2 1   3 !
    CONSTITUENT BCC_A2  :CA,V : O,VA :  !

       PARA G(BCC_A2,CA:O;0) 298.15 +0; 6000 N!
   PARAMETER G(BCC_A2,V:O;0)              298.15 +GHSERVV#+3*GHSEROO#-515378
  +186.93*T; 6000 N REF0 !
   PARAMETER G(BCC_A2,CA:VA;0)            298.15 +GBCCCA#; 6000 N REF0 !
   PARAMETER G(BCC_A2,V:VA;0)             298.15 +GHSERVV#; 6000 N REF0 !
   PARAMETER G(BCC_A2,V:O,VA;0)           298.15 -513376; 6000 N REF0 !
   PARAMETER G(BCC_A2,V:O,VA;1)           298.15 +274677; 6000 N REF0 !
   PARAMETER G(BCC_A2,CA,V:VA;0)          298.15 +173437; 6000 N REF0 !


 PHASE BETA_V_O  %  2 1   1 !
    CONSTITUENT BETA_V_O  :V : O,VA :  !

   PARAMETER G(BETA_V_O,V:O;0)            298.15 +GV1O1#+54381-9.329*T; 6000 
  N REF0 !
   PARAMETER G(BETA_V_O,V:VA;0)           298.15 +GHSERVV#+1540-.512*T; 6000 
  N REF0 !
   PARAMETER G(BETA_V_O,V:O,VA;0)         298.15 -101228; 6000 N REF0 !


 PHASE BRONZE:I %  3 2   5   1 !
    CONSTITUENT BRONZE:I :V+4,V+5 : O-2 : CA+2,VA :  !

   PARAMETER G(BRONZE,V+4:O-2:CA+2;0)     298.15 +GCAV2O5#+70905.67
  +1.744*T; 6000 N REF0 !
   PARAMETER G(BRONZE,V+5:O-2:CA+2;0)     298.15 +GCAV2O5#+71145.56
  +15.048*T; 6000 N REF0 !
   PARAMETER G(BRONZE,V+4:O-2:VA;0)       298.15 +GV2O5#; 6000 N REF0 !
   PARAMETER G(BRONZE,V+5:O-2:VA;0)       298.15 +GV2O5#+239.89
   +13.304*T; 6000 N REF0 !
   PARAMETER G(BRONZE,V+4,V+5:O-2:CA+2,VA;0) 298.15 -445084+16.295*T; 6000 N 
  REF0 !
   PARAMETER G(BRONZE,V+4,V+5:O-2:CA+2,VA;1) 298.15 940636; 6000 N 
  REF0 !



 PHASE C2V_5  %  3 2   2   7 !
    CONSTITUENT C2V_5  :CA+2 : V+5 : O-2 :  !

   PARAMETER G(C2V_5,CA+2:V+5:O-2;0)      298.15 +F6045T#+9863.7
   +28.801*T; 6000 N REF0 !


 PHASE C3V_5  %  3 3   2   8 !
    CONSTITUENT C3V_5  :CA+2 : V+5 : O-2 :  !

   PARAMETER G(C3V_5,CA+2:V+5:O-2;0)      298.15 +F6071T#+5464.9
   +22.862*T; 6000 N REF0 !


 PHASE C4V_5  %  3 4   2   9 !
    CONSTITUENT C4V_5  :CA+2 : V+5 : O-2 :  !

   PARAMETER G(C4V_5,CA+2:V+5:O-2;0)      298.15 +4*GCAOSOL#+GV2O5#
   -408231+59.995*T; 6000 N REF0 !


 PHASE C5  %  3 5   3   9.5 !
    CONSTITUENT C5  :CA+2 : V+3 : O-2 :  !

   PARAMETER G(C5,CA+2:V+3:O-2;0)         298.15 +5*GCAOSOL#+1.5*GV2O3#
   -349352.9+3.72*T; 6000 N REF0 !


 PHASE C9  %  3 9   6   18 !
    CONSTITUENT C9  :CA+2 : V+3 : O-2 :  !

   PARAMETER G(C9,CA+2:V+3:O-2;0)         298.15 +9*GCAOSOL#+3*GV2O3#-642465.4
  -25.14*T; 6000 N REF0 !


 TYPE_DEFINITION ' GES A_P_D CORUNDUM MAGNETIC  -3.0    2.80000E-01 !
 PHASE CORUNDUM  %'  2 2   3 !
    CONSTITUENT CORUNDUM  :V+3,V+4,VA : O-2 :  !

   PARAMETER G(CORUNDUM,V+3:O-2;0)        298.15 +GV2O3#+1.150E+03
   -1.55E+01*T; 6000 N  !
   PARAMETER G(CORUNDUM,V+4:O-2;0)        298.15 +GV2O3#-8.87642E+04
   -7.989E+01*T; 6000 N  !
   PARAMETER G(CORUNDUM,VA:O-2;0)         298.15 +ZERO#; 6000 N  !

 PHASE CV2_4  %  3 1   2   5 !
    CONSTITUENT CV2_4  :CA+2 : V+4 : O-2 :  !

   PARAMETER G(CV2_4,CA+2:V+4:O-2;0)      298.15 +GCAV2O5#; 6000 N REF0 !


 PHASE CV3_4  %  3 1   3   7 !
    CONSTITUENT CV3_4  :CA+2 : V+4 : O-2 :  !

   PARAMETER G(CV3_4,CA+2:V+4:O-2;0)      298.15 +GCAOSOL#+3*GV1O2_LT#
   -76000-55.255*T; 6000 N REF0 !


 PHASE CV4_4  %  3 1   4   9 !
    CONSTITUENT CV4_4  :CA+2 : V+4 : O-2 :  !

   PARAMETER G(CV4_4,CA+2:V+4:O-2;0)      298.15 +GCAOSOL#+4*GV1O2_LT#-81000
  -58.505*T; 6000 N REF0 !


 PHASE CV_3  %  3 1   2   4 !
    CONSTITUENT CV_3  :CA+2 : V+3 : O-2 :  !

   PARAMETER G(CV_3,CA+2:V+3:O-2;0)       298.15 +GCAOSOL#+GV2O3#+128678
  -63.6997*T; 6000 N REF0 !


 PHASE CV_4  %  3 1   1   3 !
    CONSTITUENT CV_4  :CA+2 : V+4 : O-2 :  !

   PARAMETER G(CV_4,CA+2:V+4:O-2;0)       298.15 +GCAOSOL#+GV1O2_LT#+24392.9
  -39.421*T; 6000 N REF0 !


 PHASE CV_5  %  3 1   2   6 !
    CONSTITUENT CV_5  :CA+2 : V+5 : O-2 :  !

   PARAMETER G(CV_5,CA+2:V+5:O-2;0)       298.15 +F5985T#-3381.2
   +29.084*T; 6000 N REF0 !


 PHASE FCC_A1  %  2 1   1 !
    CONSTITUENT FCC_A1  :CA : VA :  !

   PARAMETER G(FCC_A1,CA:VA;0)            298.15 +GHSERCA#; 6000 N REF0 !


 PHASE HALITE:I %  2 1   1 !
    CONSTITUENT HALITE:I :CA+2,V,V+2,V+3,VA : O-2,VA :  !

   PARAMETER G(HALITE,V:O-2;0)            298.15 +GFCCVV#-30*T; 6000 N  !
   PARAMETER G(HALITE,V+2:O-2;0)          298.15 +GV1O1#; 6000 N  !
   PARAMETER G(HALITE,V+3:O-2;0)          298.15 +.5*GV2O3#+1.0956E+04; 
  6000 N  !
   PARAMETER G(HALITE,VA:O-2;0)           298.15 +ZERO#; 6000 N  !
   PARAMETER G(HALITE,V:VA;0)             298.15 +GFCCVV#; 6000 N  !
   PARAMETER G(HALITE,V+2:VA;0)           298.15 +GV1O1#+30*T; 6000 N  !
   PARAMETER G(HALITE,V+3:VA;0)           298.15 +.5*GV2O3#+1.0956E+04+30*T;
   6000 N  !
   PARAMETER G(HALITE,VA:VA;0)            298.15 +30*T; 6000 N  !
   PARAMETER G(HALITE,V,V+2:O-2,VA;0)     298.15 +3.7205229E+04; 6000 N  !
   PARAMETER G(HALITE,V+2,V+3:O-2;0)      298.15 -7.9584E+03; 6000 N  !
   PARAMETER G(HALITE,V+3:O-2,VA;0)       298.15 +3.8002E+04; 6000 N  !

   PARAMETER G(HALITE,CA+2:O-2;0)         298.15 +GCAOSOL#; 6000 N REF0 !
   PARAMETER G(HALITE,CA+2:VA;0)          298.15 +0; 6000 N!
 

$   
   PARAMETER G(HALITE,CA+2,V+3:O-2;0)      298.15 1E5; 6000 N  !



 PHASE V2O5  %  2 2   5 !
    CONSTITUENT V2O5  :V+5 : O-2 :  !

   PARAMETER G(V2O5,V+5:O-2;0)            298.15 +GV2O5#; 6000 N REF0 !


 PHASE V2O_SS  %  2 1   .5 !
    CONSTITUENT V2O_SS  :V : O,VA :  !

   PARAMETER G(V2O_SS,V:O;0)              298.15 +GHCPVV#+.5*GHSEROO#-220054
  +33.54*T; 6000 N REF0 !
   PARAMETER G(V2O_SS,V:VA;0)             298.15 +GHCPVV#; 6000 N REF0 !
   PARAMETER G(V2O_SS,V:O,VA;0)           298.15 -14949; 6000 N REF0 !


 PHASE V3O5_HT  %  3 2   1   5 !
    CONSTITUENT V3O5_HT  :V+3 : V+4 : O-2 :  !

   PARAMETER G(V3O5_HT,V+3:V+4:O-2;0)     298.15 +GV3O5_HT#; 6000 N REF0 !


 PHASE V3O5_LT  %  3 2   1   5 !
    CONSTITUENT V3O5_LT  :V+3 : V+4 : O-2 :  !

   PARAMETER G(V3O5_LT,V+3:V+4:O-2;0)     298.15 +GV3O5_LT#; 6000 N REF0 !


 PHASE V3O7  %  3 2   1   7 !
    CONSTITUENT V3O7  :V+5 : V+4 : O-2 :  !

   PARAMETER G(V3O7,V+5:V+4:O-2;0)        298.15 +GV2O5#+GV1O2_LT#-26768-1
  +27.28*T; 341 Y
   +GV2O5#+GV1O2_HT#-26768-1+27.28*T; 6000 N REF0 !


 PHASE V4O7  %  3 2   2   7 !
    CONSTITUENT V4O7  :V+3 : V+4 : O-2 :  !

   PARAMETER G(V4O7,V+3:V+4:O-2;0)        298.15 +GV3O5_LT#+GV1O2_LT#-9979
  +3.13*T; 341 Y
   +GV3O5_LT#+GV1O2_HT#-9979+3.13*T; 428 Y
   +GV3O5_HT#+GV1O2_HT#-9979+3.13*T; 6000 N REF0 !


 PHASE V52O64  %  2 52   64 !
    CONSTITUENT V52O64  :V : O :  !

   PARAMETER G(V52O64,V:O;0)              298.15 +64*GV1O1#-12*GFCCVV#
  +345671-25*T; 6000 N REF0 !


 PHASE V5O9  %  3 2   3   9 !
    CONSTITUENT V5O9  :V+3 : V+4 : O-2 :  !

   PARAMETER G(V5O9,V+3:V+4:O-2;0)        298.15 +GV3O5_LT#+2*GV1O2_LT#
  -16919+6.29*T; 341 Y
   +GV3O5_LT#+2*GV1O2_HT#-16919+6.29*T; 428 Y
   +GV3O5_HT#+2*GV1O2_HT#-16919+6.29*T; 6000 N REF0 !


 PHASE V6O11  %  3 2   4   11 !
    CONSTITUENT V6O11  :V+3 : V+4 : O-2 :  !

   PARAMETER G(V6O11,V+3:V+4:O-2;0)       298.15 +GV3O5_LT#+3*GV1O2_LT#
  -23149.4+9.56*T; 341 Y
   +GV3O5_LT#+3*GV1O2_HT#-23149.4+9.56*T; 428 Y
   +GV3O5_HT#+3*GV1O2_HT#-23149.4+9.56*T; 6000 N REF0 !


 PHASE V6O13  %  3 2   4   13 !
    CONSTITUENT V6O13  :V+5 : V+4 : O-2 :  !

   PARAMETER G(V6O13,V+5:V+4:O-2;0)       298.15 +GV2O5#+4*GV1O2_LT#-27412
  +25.57*T; 341 Y
   +GV2O5#+4*GV1O2_HT#-27412+25.57*T; 6000 N REF0 !


 PHASE V7O13  %  3 2   5   13 !
    CONSTITUENT V7O13  :V+3 : V+4 : O-2 :  !

   PARAMETER G(V7O13,V+3:V+4:O-2;0)       298.15 +GV3O5_LT#+4*GV1O2_LT#
  -24034+10.172*T; 341 Y
   +GV3O5_LT#+4*GV1O2_HT#-24034+10.172*T; 428 Y
   +GV3O5_HT#+4*GV1O2_HT#-24034+10.172*T; 6000 N REF0 !


 PHASE V8O15  %  3 2   6   15 !
    CONSTITUENT V8O15  :V+3 : V+4 : O-2 :  !

   PARAMETER G(V8O15,V+3:V+4:O-2;0)       298.15 +GV3O5_LT#+5*GV1O2_LT#
  -24398.9+10.447*T; 341 Y
   +GV3O5_LT#+5*GV1O2_HT#-24398.9+10.447*T; 428 Y
   +GV3O5_HT#+5*GV1O2_HT#-24398.9+10.447*T; 6000 N REF0 !


 PHASE VO2_HT  %  2 1   2 !
    CONSTITUENT VO2_HT  :V+4 : O-2 :  !

   PARAMETER G(VO2_HT,V+4:O-2;0)          298.15 +GV1O2_HT#; 6000 N REF0 !


 PHASE VO2_LT  %  2 1   2 !
    CONSTITUENT VO2_LT  :V+4 : O-2 :  !

   PARAMETER G(VO2_LT,V+4:O-2;0)          298.15 +GV1O2_LT#; 6000 N REF0 !

 LIST_OF_REFERENCES
 NUMBER  SOURCE
  ! 
 
