$ AUPT(=AUPTSN)
$ -----------------------------------------------------------------------------
$ 2010.1.19
$ 
$ TDB file created by K.Hashimoto, T.Abe, and Y.Sawada
$
$ Particle Simulation and Thermodynamics Group, National Institute for 
$ Materials Science. 1-2-1 Sengen, Tsukuba, Ibaraki 305-0047, Japan
$ 
$ e-mail: abe.taichi@nims.go.jp
$
$ Copyright (C) NIMS 2009
$ -----------------------------------------------------------------------------
$
$ The parameter set is taken from
$  Experimental Study of Au-Pt-Sn Phase Equilibria and Thermodynamic Assessment 
$  of the Au-Pt and Au-Pt-Sn Systems;
$  V.Grolier, R.Schmid-Fetzer, J.Electron. Mater., 37 (2008) 264-278.
$
$ -----------------------------------------------------------------------------
$
 ELEMENT /-   ELECTRON_GAS              0.0000E+00  0.0000E+00  0.0000E+00!
 ELEMENT VA   VACUUM                    0.0000E+00  0.0000E+00  0.0000E+00!
 ELEMENT AU   FCC_A1                    1.9697E+02  6.0166E+03  4.7488E+01!
 ELEMENT PT   FCC_A1                    1.9508E+02  5.7237E+03  4.1631E+01!
 ELEMENT SN   BCT_A5                    1.1871E+02  6.3220E+03  5.1195E+01!
$ 
$ ------------------------------------------------------------------------------
$
FUNCTION GHSERAU    298.15  -6938.853+106.830495*T-22.75455*T*LN(T)
    -.00385924*T**2+3.79625E-07*T**3-25097*T**(-1);                  933.51  Y
    -93575.261+1021.60143*T-155.6947*T*LN(T)+.08756015*T**2
    -1.1518713E-05*T**3+10637210*T**(-1);                           1337.58  Y
    +314062.987-2016.37379*T+263.2523*T*LN(T)-.11821685*T**2
    +8.923845E-06*T**3-67999850*T**(-1);                            1735.80  Y
    -12138.657+165.277268*T-30.9616*T*LN(T);                           3200  N !

FUNCTION GHSERPT    298.15  -7595.631+124.388276*T-24.5526*T*LN(T)
    -.00248297*T**2-2.0138E-08*T**3+7974*T**(-1);                      1300  Y
    -9253.174+161.529616*T-30.2527*T*LN(T)+.002321665*T**2
    -6.56947E-07*T**3-272106*T**(-1);                                2042.1  Y
    -222518.973+1021.21087*T-136.422689*T*LN(T)+.020501692*T**2
    -7.60985E-07*T**3+71709819*T**(-1);                                4000  N !

FUNCTION GHSERSN    100  -7958.517+122.750027*T-25.858*T*LN(T)
     +5.1185E-04*T**2-3.192767E-06*T**3+18440*T**(-1);                  250  Y
     -5855.135+65.427891*T-15.961*T*LN(T)-.0188702*T**2+3.121167E-06*T**3
     -61960*T**(-1);                                                 505.08  Y
     +2524.724+3.989845*T-8.2590486*T*LN(T)-.016814429*T**2
     +2.623131E-06*T**3-1081244*T**(-1)-1.2307E+25*T**(-9);             800  Y
     -8256.959+138.981456*T-28.4512*T*LN(T)-1.2307E+25*T**(-9);        3000  N !

FUNCTION GAULIQ     298.15  +12552-9.38411*T+GHSERAU#;                 3200  N !

FUNCTION GPTLIQ     298.15  +12520.614+115.114727*T
     -24.5526*T*LN(T)-.00248297*T**2-2.0138E-08*T**3+7974*T**(-1);      600  Y
     +19019.913+33.017485*T-12.351404*T*LN(T)-.011543133*T**2
     +9.30579E-07*T**3-600885*T**(-1);                               2042.1  Y
     +1404.968+205.861909*T-36.5*T*LN(T);                              4000  N !

FUNCTION GSNLIQ     100  +7104.222-14.09088*T+1.49316649E-18*T**7+GHSERSN#; 
                                                                     505.06  Y
     +6970.705-13.813302*T+1.24912E+25*T**(-9)+GHSERSN#;               3000  N !
 
FUNCTION GSNFCC     100  +4150-5.2*T+GHSERSN#;                         3000  N !
FUNCTION GAUHCP     298.15  +240.75+1.6*T+GHSERAU#;                    3200  N !

$ CSNHCP is taken from  'P. Miodownik and N. Saunders, Lattice stabilities'
FUNCTION GSNHCP     298.15  +3900-4.4*T+GHSERSN#;                      6000  N !

SPECIES  PT1SN1     PT1SN1!

$------------------------------------------------------------------------------- 
 TYPE_DEFINITION % SEQ *!
 DEFINE_SYSTEM_DEFAULT ELEMENT 2 !
 DEFAULT_COMMAND DEF_SYS_ELEMENT VA /- !

$------------------------------------------------------------------------------- 
$ PARAMETERS FOR LIQUID PHASE
$-------------------------------------------------------------------------------
PHASE LIQUID:L %  1  1.0  !
    CONSTITUENT LIQUID:L :AU,PT,PT1SN1,SN :  !
   PARAMETER G(LIQUID,AU;0)   298.15  +GAULIQ#;                        3200  N !
   PARAMETER G(LIQUID,PT;0)   298.15  +GPTLIQ#;                        4000  N !
   PARAMETER G(LIQUID,SN;0)   100     +GSNLIQ#;                        3000  N !
   PARAMETER G(LIQUID,PT1SN1;0) 298.15  -94663.3 +GPTLIQ# +GSNLIQ#;    6000  N !
   PARAMETER G(LIQUID,PT,PT1SN1;0)   298.15   -71062.3 +25.6461*T;     6000  N !
   PARAMETER G(LIQUID,PT,PT1SN1;1)   298.15   -10754.4;                6000  N !
   PARAMETER G(LIQUID,PT1SN1,SN;0)   298.15   -33610.0 +18.8021*T;     6000  N !
   PARAMETER G(LIQUID,AU,PT;0)       298.15   +13000+7*T;              6000  N !
   PARAMETER G(LIQUID,AU,PT1SN1;0)   298.15   -13500+6*T;              6000  N !
   PARAMETER G(LIQUID,AU,PT1SN1;1)   298.15   +7000;                   6000  N !
   PARAMETER G(LIQUID,AU,SN;0) 298.15  -53077.5+87.827*T-13.63882*T*LN(T) 
     +0.005286*T**2;                                                   6000  N !
   PARAMETER G(LIQUID,AU,SN;1) 298.15  -16853.5;                       6000  N !
   PARAMETER G(LIQUID,AU,PT,SN;0)  298.15  0;                          6000  N !
   PARAMETER G(LIQUID,AU,PT,SN;1)  298.15  0;                          6000  N !
   PARAMETER G(LIQUID,AU,PT,SN;2)  298.15  0;                          6000  N !

$------------------------------------------------------------------------------- 
$ PARAMETERS FOR FCC_A1
$-------------------------------------------------------------------------------
TYPE_DEFINITION ' GES A_P_D FCC_A1 MAGNETIC  -3.0    2.80000E-01 !
 PHASE FCC_A1  %'  2  1   1 !
    CONSTITUENT FCC_A1 :AU%,PT%,SN : VA% :  !
  PARAMETER G(FCC_A1,AU:VA;0)        298.15  +GHSERAU#;                4000  N !
  PARAMETER G(FCC_A1,PT:VA;0)        298.15  +GHSERPT#;                4000  N !
  PARAMETER G(FCC_A1,SN:VA;0)        100     +GSNFCC#;                 3000  N !
  PARAMETER G(FCC_A1,PT,SN:VA;0)     298.15  -125000-2.0*T;            6000  N !
  PARAMETER G(FCC_A1,AU,PT:VA;0)     298.15  +11625+8.3104*T;          6000  N !
  PARAMETER G(FCC_A1,AU,PT:VA;1)     298.15  -12616.2+5.8186*T;        6000  N !
  PARAMETER G(FCC_A1,AU,SN:VA;0)     298.15  -28802-7.5*T;             6000  N !
  PARAMETER G(FCC_A1,AU,SN:VA;1)     298.15  +8515.1-11.7873*T;        6000  N !
  PARAMETER G(FCC_A1,AU,SN:VA;2)     298.15  +368.6;                   6000  N !
  PARAMETER G(FCC_A1,AU,PT,SN:VA;0)  298.15  0;                        6000  N !
  PARAMETER G(FCC_A1,AU,PT,SN:VA;1)  298.15  0;                        6000  N !
  PARAMETER G(FCC_A1,AU,PT,SN:VA;2)  298.15  0;                        6000  N !

$-------------------------------------------------------------------------------
$ PARAMETERS FOR βAU10SN(DO24)
$-------------------------------------------------------------------------------
 PHASE AU10SN_beta  %  1 1.0 !
    CONSTITUENT AU10SN_beta :AU,SN :  !
  PARAMETER G(AU10SN_beta,AU;0)  298.15 +125.0+0.79*T +GHSERAU#;       2500  N !
  PARAMETER G(AU10SN_beta,SN;0)  298.15 +3803.52-3.46*T+GHSERSN#;      3000  N !
  PARAMETER G(AU10SN_beta,AU,SN;0)  298.15  -13427-5.2576*T;           6000  N !
  PARAMETER G(AU10SN_beta,AU,SN;1)  298.15  -14823.1-23.6*T;           6000  N !
  
$------------------------------------------------------------------------------- 
$ PARAMETERS FOR BCT_A5
$-------------------------------------------------------------------------------
  PHASE BCT_A5  %  1  1.0  !
    CONSTITUENT BCT_A5  :SN% :  !
   PARAMETER G(BCT_A5,SN;0)  100  +GHSERSN#;                           3000  N !

$-------------------------------------------------------------------------------
$ PARAMETERS FOR ζAU5SN(HCP)
$-------------------------------------------------------------------------------
 PHASE AU5SN_zeta %  1 1.0 !
    CONSTITUENT AU5SN_zeta :AU,SN :  !
  PARAMETER G(AU5SN_zeta,AU;0)  298.15 +GAUHCP#;                       2500  N !
  PARAMETER G(AU5SN_zeta,SN;0)  298.15 +GSNHCP#;                       3000  N !
  PARAMETER G(AU5SN_zeta,AU,SN;0)  298.15  -13145.3-6.4932*T;          6000  N !
  PARAMETER G(AU5SN_zeta,AU,SN;1)  298.15  -19184.8-27.9*T;            6000  N !

$-------------------------------------------------------------------------------
$ PARAMETERS FOR δAUPTSN2
$-------------------------------------------------------------------------------
 PHASE AUPTSN2_delta %  2  0.5 0.5 !
   CONSTITUENT AUPTSN2_delta :AU,PT:SN :  !
  PARAMETER G(AUPTSN2_delta,AU:SN;0)     298.15  -14971.3 -0.22*T
                    +0.5*GHSERAU#+0.5*GHSERSN#;                        6000  N !
  PARAMETER G(AUPTSN2_delta,PT:SN;0)     298.15  -59500 +4.3833*T
                      +0.5*GHSERPT#+0.5*GHSERSN#;                      6000  N !
  PARAMETER G(AUPTSN2_delta,AU,PT:SN;0)  298.15  +1700;                6000  N !
  PARAMETER G(AUPTSN2_delta,AU,PT:SN;1)  298.15  -6000;                6000  N !

$-------------------------------------------------------------------------------
$ PARAMETERS FOR  intermetaric compounds
$-------------------------------------------------------------------------------
 PHASE AU5SN  %  2 .84  .16 !
  CONSTITUENT AU5SN  : AU : SN : !
  PARAMETER G(AU5SN,AU:SN;0)    298.15  -4050 -3.635*T
                    +0.84*GHSERAU#+0.16*GHSERSN#;                      6000  N !

 PHASE AUSN  %  2 .5  .5 !
  CONSTITUENT AUSN  : AU : SN : !
  PARAMETER G(AUSN,AU:SN;0)    298.15  -14971.3 -0.22*T
                    +0.5*GHSERAU#+0.5*GHSERSN#;                        6000  N !

 PHASE AUSN2 %  2 .3333 .6667 !
  CONSTITUENT AUSN2  : AU : SN : !
  PARAMETER G(AUSN2,AU:SN;0)    298.15  -13079.8 +2.65*T
                    +0.3333*GHSERAU#+0.6667*GHSERSN#;                  6000  N !

 PHASE AUSN4 %  2 .2 .8 !
  CONSTITUENT AUSN4  : AU : SN : !
  PARAMETER G(AUSN4,AU:SN;0)    298.15  -7117 -0.62*T
                    +0.2*GHSERAU#+0.8*GHSERSN#;                        6000  N !

$-------------------------------------------------------------------------------
$ PARAMETERS FOR STOICHIOMETRIC COMPOUND
$------------------------------------------------------------------------------- 
PHASE PT3SN  %  2 0.75  0.25  !
  CONSTITUENT PT3SN  : PT : SN : !
  PARAMETER G(PT3SN,PT:SN;0)      2.98150E+02    -35826.2-0.5*T
                    +0.75*GHSERPT#+0.25*GHSERSN#;                      6000  N !

 PHASE PTSN  %  2 0.5  0.5  !
 CONSTITUENT PTSN  : PT : SN : !
  PARAMETER G(PTSN,PT:SN;0)      2.98150E+02    -59500 +4.3833*T
                      +0.5*GHSERPT#+0.5*GHSERSN#;                      6000  N !

 PHASE PT2SN3  %  2 0.4  0.6  !
  CONSTITUENT PT2SN3  : PT : SN : !
  PARAMETER G(PT2SN3,PT:SN;0)      2.98150E+02    -52240 +4.83*T
                       +0.4*GHSERPT# +0.6*GHSERSN#;                    6000  N !
 
 PHASE PTSN2  %  2 0.3333  0.6667  !
  CONSTITUENT PTSN2  : PT : SN : !
  PARAMETER G(PTSN2,PT:SN;0)      2.98150E+02    -45160 +4.02*T
                 +0.3333*GHSERPT# +0.6667*GHSERSN#;                    6000  N !

PHASE PTSN4  %  2  0.2  0.8  !
  CONSTITUENT PTSN4  : PT : SN : !
  PARAMETER G(PTSN4,PT:SN;0)      2.98150E+02    -29000 +2.4*T
                 +0.2*GHSERPT# +0.8*GHSERSN#;                          6000  N !

PHASE TAU  %  3  0.1429  0.2857  0.5714  !
  CONSTITUENT TAU  : AU : PT : SN : !
  PARAMETER G(TAU,AU:PT:SN;0)      298.15    -44000+5.715*T
                +0.1429*GHSERAU#+0.2857*GHSERPT#+0.5714*GHSERSN#;      6000  N !


$AUPT(=AUPTSN)
