$Thermodynamic database for Si-Zr-N system  
ELEMENT /-   ELECTRON_GAS      0.0000E+00  0.0000E+00  0.0000E+00!
ELEMENT VA   VACUUM            0.0000E+00  0.0000E+00  0.0000E+00!
ELEMENT N    1/2_MOLE_N2(GAS)  1.4007E+01  4.3350E+03  9.5751E+01!
ELEMENT SI   DIAMOND_A4        2.8085E+01  3.2175E+03  1.8820E+01!
ELEMENT ZR   HCP_A3            9.1224E+01  5.5663E+03  3.9181E+01!
 
SPECIES N1SI1    N1SI1!
SPECIES N1SI2    N1SI2!
SPECIES N1ZR1    N1ZR1!
SPECIES N2       N2!
SPECIES N3       N3!
SPECIES N4SI3    N4SI3!
SPECIES SI2      SI2!
SPECIES SI3      SI3!
SPECIES ZR2      ZR2!

FUNCTION GHSERNN 298.15 -3750.675-9.45425*T-12.7819*T*LN(T)
-.00176686*T**2+2.681E-09*T**3-32374*T**(-1); 950 Y
-7358.85+17.2003*T-16.3699*T*LN(T)-6.5107E-04*T**2+3.0097E-08*T**3
+563070*T**(-1); 3350 Y
-16392.8+50.26*T-20.4695*T*LN(T)+2.39754E-04*T**2-8.333E-09*T**3
+4596375*T**(-1); 6000 N !
FUNCTION GHSERSI 298.15 -8162.609+137.236859*T-22.8317533*T*LN(T)
-.001912904*T**2-3.552E-09*T**3+176667*T**(-1); 1687 Y
-9457.642+167.281367*T-27.196*T*LN(T)-4.20369E+30*T**(-9); 3600 N !
FUNCTION GHSERZR 130 -7827.595+125.64905*T-24.1618*T*LN(T)-.00437791*T**2
+34971*T**(-1); 2128 Y
-26085.921+262.724183*T-42.144*T*LN(T)-1.342896E+31*T**(-9); 6000 N !
FUNCTION GLIQNN 298.15 +GHSERNN+29950+59.02*T; 6000 N !
FUNCTION GLIQSI 298.15 +GHSERSI+50696.36-30.099439*T
+2.09307E-21*T**7; 1687 Y
+40370.523+137.722298*T-27.196*T*LN(T); 3600 N !
FUNCTION GFCCSI 298.15 +GHSERSI+51000-21.8*T; 3600 N !
FUNCTION GBCCSI 298.15 +GHSERSI+47000-22.5*T; 3600 N !
FUNCTION GHCPSI 298.15 +GHSERSI+49200-20.8*T; 3600 N !
FUNCTION GLIQZR 298.15 +GHSERZR+18147.69-9.080812*T
+1.6275E-22*T**7; 2128 Y
-8281.26+253.812609*T-42.144*T*LN(T); 6000 N !
FUNCTION GFCCZR 298.15 +GHSERZR+7600-.9*T; 6000 N !
FUNCTION GBCCZR 298.15 -525.539+124.9457*T-25.607406*T*LN(T)
-3.40084E-04*T**2-9.729E-09*T**3+25233*T**(-1)-7.6143E-11*T**4; 2128 Y
-30705.955+264.284163*T-42.144*T*LN(T)+1.276058E+32*T**(-9); 6000 N !
FUNCTION F13658T 298.15 +466446.153-13.3752579*T-20.89393*T*LN(T)
+8.45521E-05*T**2-1.0018685E-08*T**3+2788.7865*T**(-1); 2950 Y
+481259.036-52.5441357*T-16.37613*T*LN(T)-2.283738E-04*T**2
-2.78997167E-08*T**3-7559105*T**(-1); 6000 N !
FUNCTION F13863T 298.15 +373690.147-126.773849*T-11.48813*T*LN(T)
-.02760032*T**2+4.14460833E-06*T**3-201121*T**(-1); 900 Y
+345651.105+184.200439*T-57.02462*T*LN(T)+.005212695*T**2
-2.80815333E-07*T**3+3030993*T**(-1); 3000 Y
+401766.122-30.0990737*T-30.3733*T*LN(T)-6.13755E-04*T**2
-3.30314167E-08*T**3-19797170*T**(-1); 5800 Y
+397720.711-70.2315921*T-24.95975*T*LN(T)-.0020519915*T**2
+1.71382167E-08*T**3-543722*T**(-1); 6000 N !
FUNCTION F13869T 298.15 +367551.162+68.9613567*T-47.11477*T*LN(T)
-.01410916*T**2+2.51869833E-06*T**3+190945.2*T**(-1); 800 Y
+360363.442+166.768467*T-61.99726*T*LN(T)-8.395595E-05*T**2
+2.98128167E-09*T**3+863651*T**(-1); 3400 Y
+358195.746+179.731995*T-63.68676*T*LN(T)+4.0735635E-04*T**2
-2.15632833E-08*T**3+1158715*T**(-1); 6000 N !
FUNCTION F13668T 298.15 -8000.12538-8.81620423*T-27.22332*T*LN(T)
-.0012599175*T**2-5.39381E-07*T**3-38326.695*T**(-1); 800 Y
-10569.6461+2.77534096*T-28.42384*T*LN(T)-.003189275*T**2
+2.06638E-07*T**3+416969.05*T**(-1); 2200 Y
-22468.6303+71.8176265*T-37.55014*T*LN(T)-6.158995E-06*T**2
-4.22547E-09*T**3+3427512*T**(-1); 6000 N !
FUNCTION F13688T 298.15 +426260.222-44.8788475*T-24.40177*T*LN(T)
-.02510581*T**2+3.41313667E-06*T**3+61652.95*T**(-1); 800 Y
+409926.892+144.323861*T-52.34995*T*LN(T)-.0035522355*T**2
+2.39819667E-07*T**3+1869491.5*T**(-1); 2200 Y
+398090.062+216.588606*T-61.96494*T*LN(T)-5.55378E-05*T**2
+1.47712917E-09*T**3+4654831*T**(-1); 6000 N !
FUNCTION F16408T 298.15 +444169.766-27.9507107*T-21.04097*T*LN(T)
+3.7970425E-04*T**2-9.73407167E-08*T**3-61797.2*T**(-1); 2000 Y
+437545.354-12.9504911*T-22.5648*T*LN(T)-2.428964E-04*T**2
+1.1169705E-08*T**3+2760718.5*T**(-1); 5500 Y
+405256.153+76.2660203*T-33.14557*T*LN(T)+.0012877205*T**2
-3.00107333E-08*T**3+21167395*T**(-1); 10000 N !
FUNCTION F16424T 298.15 +572963.738+3.71111536*T-35.9832*T*LN(T)
-9.4063E-04*T**2-4.840215E-08*T**3+12476.05*T**(-1); 2600 Y
+609343.923-151.775041*T-16.36102*T*LN(T)-.005711295*T**2
+1.72754333E-07*T**3-12777080*T**(-1); 6000 N !
FUNCTION F16428T   298.15 +611231.76+46.3558219*T-46.87401*T*LN(T)
-.01734593*T**2+3.536315E-06*T**3+194880.6*T**(-1); 700 Y
+604474.517+159.236354*T-64.54462*T*LN(T)+.0019320005*T**2
-2.38038667E-07*T**3+630559*T**(-1); 2400 Y
+613241.601+78.6268439*T-53.45528*T*LN(T)-.0027577635*T**2
+9.275105E-08*T**3+606517*T**(-1); 6000 N !
FUNCTION F16956T 298.15 +567720.641+85.6851189*T-38.69111*T*LN(T)
+.01152846*T**2-1.693255E-06*T**3+270638.8*T**(-1); 700 Y
+576834.093-14.7850514*T-24.06106*T*LN(T)+.001743641*T**2
-5.94312333E-07*T**3-748947.5*T**(-1); 1300 Y
+574685.474-34.7524557*T-20.46361*T*LN(T)-.002961084*T**2
+1.08391433E-07*T**3+526352.5*T**(-1); 2700 Y
+611588.852-150.697371*T-6.647343*T*LN(T)-.0046738955*T**2
+1.06833583E-07*T**3-15872340*T**(-1); 6600 Y
+485104.072+143.08182*T-40.68801*T*LN(T)-6.38357E-04*T**2
+1.79125333E-08*T**3+71496950*T**(-1); 10000 N !
FUNCTION F16975T 298.15 +886779.863-9.29107585*T-37.13672*T*LN(T)
-3.2039655E-04*T**2-4.30605167E-09*T**3+85422.15*T**(-1); 3600 Y
+868133.758+14.4701785*T-39.33356*T*LN(T)-.001019669*T**2
+6.09799667E-08*T**3+14065805*T**(-1); 6000 N !
FUNCTION F13912T 298.15 +703577.071-32.575978*T-29.24152*T*LN(T)
-.00785065*T**2+1.3910475E-06*T**3+67446.7*T**(-1); 800 Y
+699707.231+20.4173598*T-37.31572*T*LN(T)-1.7143395E-04*T**2
+6.13552167E-10*T**3+427996*T**(-1); 6000 N !
FUNCTION GHSERNZR 298.15 -381821.182+278.178233*T-46.4202194*T*LN(T)
-.00352792791*T**2+1.33236681E-09*T**3+358416.094*T**(-1); 2000 Y
-324412.768-11.6192139*T-9.00032806*T*LN(T)-.0142983599*T**2
+5.79050986E-07*T**3-16048445*T**(-1); 2600 Y
-371959.131+237.46038*T-41.3140297*T*LN(T)-.00469480362*T**2
+5.0809381E-08*T**3-3201806*T**(-1); 3225 Y
-316831.81+344.900575*T-58.5760002*T*LN(T); 5000 N !
FUNCTION FT 298.15 +GHSERNZR+14741+.152*T-.011*T*LN(T); 6000 N !
FUNCTION LNT 298.15 +1*LN(T); 6000 N !
FUNCTION SQRTT 298.15 +1*EXP(.5*LNT); 6000 N !
FUNCTION GBSI3N4 1 -815850.5-0.2969508104E-05*T**4; 80 Y
-822185.8765+305.6875944*T-56.38638459*T*LN(T)
+0.4489475040E-01*T**2+99067.41356*T**(-1); 110 Y
-759466.2644+2585.207764*T-332.0918305*T*LN(T)
-0.1358074458E-05*T**3+0.2660172840E-01*T**2
-15770.69173*SQRTT-482280.7600*T**(-1); 3000 N !
FUNCTION GASI3N4 1 -817004.5-0.1976573422E-05*T**4; 90 Y
-821064.5128+146.3010806*T-23.49742247*T*LN(T)
-0.7307495661E-01*T**2+78407.39395*T**(-1); 140 Y
-738176.2277+3102.604575*T-390.5999257*T*LN(T)
-0.2544608314E-05*T**3+0.4132250381E-01*T**2
-20171.72194*SQRTT-811775.1694*T**(-1); 3000 N  ! 
FUNCTION GZR5SI3N 1 -1009943-0.2561836574E-04*T**4; 40 Y
-1009633.821-102.6060555*T+32.32309858*T*LN(T)
-0.6792530055*T**2+1873.789643*T**(-1); 100 Y
-999817.639+2227.154465*T-333.2441225*T*LN(T)
-0.2514021982E-05*T**3+0.2516724560E-01*T**2
-8242.284160*SQRTT+95758.329*T**(-1); 2250 Y
-1015595.82+1041.699170*T-191.6062357*T*LN(T)
-0.1361560375E-01*T**2; 3000 N !

TYPE_DEFINITION % SEQ *!
DEFINE_SYSTEM_DEFAULT ELEMENT 2 !
DEFAULT_COMMAND DEF_SYS_ELEMENT VA /- !

PHASE GAS:G %  1  1.0  !
CONSTITUENT GAS:G :N,N1SI1,N1SI2,N1ZR1,N2,N3,SI,SI2,SI3,ZR,ZR2 :  !
PARAMETER G(GAS,N;0) 298.15 +F13658T+R*T*LN(1E-05*P); 6000 N  !
PARAMETER G(GAS,N1SI1;0) 298.15 +F13863T+R*T*LN(1E-05*P); 6000 N  !
PARAMETER G(GAS,N1SI2;0) 298.15 +F13869T+R*T*LN(1E-05*P); 6000 N  !
PARAMETER G(GAS,N1ZR1;0) 298.15 +F13912T+R*T*LN(1E-05*P); 6000 N  !
PARAMETER G(GAS,N2;0) 298.15 +F13668T+R*T*LN(1E-05*P); 6000 N  !
PARAMETER G(GAS,N3;0) 298.15 +F13688T+R*T*LN(1E-05*P); 6000 N  !
PARAMETER G(GAS,SI;0) 298.15 +F16408T+R*T*LN(1E-05*P); 6000 N  !
PARAMETER G(GAS,SI2;0) 298.15 +F16424T+R*T*LN(1E-05*P); 6000 N  !
PARAMETER G(GAS,SI3;0) 298.15 +F16428T+R*T*LN(1E-05*P); 6000 N  !
PARAMETER G(GAS,ZR;0) 298.15 +F16956T+R*T*LN(1E-05*P); 6000 N  !
PARAMETER G(GAS,ZR2;0) 298.15 +F16975T+R*T*LN(1E-05*P); 6000 N  !

PHASE LIQUID  %  1  1.0  !
CONSTITUENT LIQUID  :N,SI,ZR :  !
PARAMETER G(LIQUID,N;0) 298.15 +GLIQNN; 6000 N  !
PARAMETER G(LIQUID,SI;0) 298.15 +GLIQSI; 3600 N  !
PARAMETER G(LIQUID,ZR;0) 298.15 +GLIQZR; 6000 N  !
PARAMETER G(LIQUID,N,ZR;0) 298.15 -427557; 6000 N  !
PARAMETER G(LIQUID,N,ZR;1) 298.15 -153838; 6000 N  !
PARAMETER G(LIQUID,N,SI;0) 298.15 -58745; 6000 N  !
PARAMETER G(LIQUID,SI,ZR;0) 298.15 -200000+15.2454*T; 6000 N  !
PARAMETER G(LIQUID,SI,ZR;1) 298.15 +10*T; 6000 N  !

PHASE BCC_A2  %  2 1   3 !
CONSTITUENT BCC_A2  :SI,ZR : N,VA :  !
PARAMETER G(BCC_A2,ZR:N;0) 298.15 +FT+2*GHSERNN
+632009+320.432*T; 6000 N  !
PARAMETER G(BCC_A2,SI:VA;0) 298.15 +GBCCSI; 3600 N  !
PARAMETER G(BCC_A2,ZR:VA;0) 298.15 +GBCCZR; 6000 N  !
PARAMETER G(BCC_A2,SI:N;0) 298.15 +GHSERSI+3*GHSERNN
+100000; 6000 N  !
PARAMETER G(BCC_A2,ZR:N,VA;0) 298.15 -1508137; 6000 N  !
PARAMETER G(BCC_A2,SI,ZR:VA;0) 298.15 +80*T; 6000 N  !

PHASE FCC_A1  %  2 1   1 !
CONSTITUENT FCC_A1  :ZR : N,VA :  !
PARAMETER G(FCC_A1,ZR:N;0) 298.15 +FT; 6000 N  !
PARAMETER G(FCC_A1,ZR:VA;0) 298.15 +GFCCZR; 6000 N  !
PARAMETER G(FCC_A1,ZR:N,VA;0) 298.15 +19575; 6000 N  !

PHASE HCP_A3  %  2 1   .5 !
CONSTITUENT HCP_A3  :SI,ZR : N,VA :  !
PARAMETER G(HCP_A3,ZR:N;0) 298.15 +GHSERZR+.5*GHSERNN
-150903+43.853*T; 6000 N  !
PARAMETER G(HCP_A3,SI:VA;0) 298.15 +GHCPSI; 3600 N  !
PARAMETER G(HCP_A3,ZR:VA;0) 298.15 +GHSERZR; 6000 N  !
PARAMETER G(HCP_A3,SI:N;0) 298.15 +GHSERSI+0.5*GHSERNN; 3600 N  !
PARAMETER G(HCP_A3,ZR:N,VA;0) 298.15 -139011+45.439*T; 6000 N  !
PARAMETER G(HCP_A3,ZR:N,VA;1) 298.15 -41938; 6000 N  !
PARAMETER G(HCP_A3,SI,ZR:VA;0) 298.15 +80*T; 6000 N  !

PHASE DIAMOND_A4  %  2  1  1  !
CONSTITUENT DIAMOND_A4  :SI :VA : !
PARAMETER G(DIAMOND_A4,SI:VA;0) 298.15 +GHSERSI; 3600 N  !

PHASE ASI3N4  %  2 3   4 !
CONSTITUENT ASI3N4  :SI : N :  !
PARAMETER G(ASI3N4,SI:N;0) 1 +GASI3N4-3668; 6000 N  !

PHASE BSI3N4  %  2 3   4 !
CONSTITUENT BSI3N4  :SI : N :  !
PARAMETER G(BSI3N4,SI:N;0) 1 +GBSI3N4-8462-11.368*T; 6000 N  !

PHASE ASI4ZR5  %  2 4   5 !
CONSTITUENT ASI4ZR5  :SI : ZR :  !
PARAMETER G(ASI4ZR5,SI:ZR;0) 298.15 -916070+1437.79*T-240.256*T*LN(T)
-.0109481*T**2+6.591183E-07*T**3+2006425*T**(-1); 6000 N  !

PHASE BSI4ZR5  %  2 4   5 !
CONSTITUENT BSI4ZR5  :SI : ZR :  !
PARAMETER G(BSI4ZR5,SI:ZR;0) 298.15 -900000+1430.25*T-240.256*T*LN(T)
-.0109481*T**2+6.59118333E-07*T**3+2006425*T**(-1); 6000 N  !

PHASE ASIZR  %  2 1   1 !
CONSTITUENT ASIZR  :SI : ZR :  !
PARAMETER G(ASIZR,SI:ZR;0) 298.15 -199090+263.3889*T-45.18631*T*LN(T)
-.004393865*T**2+5.49699E-11*T**3+148517.5*T**(-1); 6000 N  !

PHASE BSIZR  %  2 1   1 !
CONSTITUENT BSIZR  :SI : ZR :  !
PARAMETER G(BSIZR,SI:ZR;0) 298.15 -193811+260.345*T-45.18631*T*LN(T)
-.004393865*T**2+5.49699E-11*T**3+148517.5*T**(-1); 6000 N  !

PHASE SI2ZR  %  2 2   1 !
CONSTITUENT SI2ZR  :SI : ZR :  !
PARAMETER G(SI2ZR,SI:ZR;0) 298.15 -210000+360.6666*T-63.16867*T*LN(T)
-.00767745*T**2+139751.1*T**(-1)-1.972048E-11*T**3; 6000 N  !

PHASE SI2ZR3  %  2 2   3 !
CONSTITUENT SI2ZR3  :SI : ZR :  !
PARAMETER G(SI2ZR3,SI:ZR;0) 298.15 -510000+845.5*T-140.103*T*LN(T)
-.003701*T**2+1.02833333E-07*T**3+1167755*T**(-1); 6000 N  !

PHASE SI3ZR5N  %  4 2   3   3   1 !
CONSTITUENT SI3ZR5N  :SI,ZR : SI,ZR : ZR : N,VA :  !
PARAMETER G(SI3ZR5N,ZR:SI:ZR:N;0) 1 +GZR5SI3N+4969; 6000 N  !
PARAMETER G(SI3ZR5N,ZR:SI:ZR:VA;0) 298.15 -722770+1052.01*T-187*T*LN(T)
-.0161754*T**2+5.22283E-08*T**3+381210*T**(-1); 6000 N  !
PARAMETER G(SI3ZR5N,ZR:ZR:ZR:VA;0) 298.15 +300000+50*T+8*GHSERZR; 6000 N !
PARAMETER G(SI3ZR5N,SI:ZR:ZR:N;0) 298.15 +2*GHSERSI+6*GHSERZR+GHSERNN; 6000 N!
PARAMETER G(SI3ZR5N,ZR:ZR:ZR:N;0) 298.15 +8*GHSERZR+GHSERNN; 6000 N!
PARAMETER G(SI3ZR5N,SI:SI:ZR:VA;0) 298.15 +5*GHSERSI+3*GHSERZR; 6000 N!
PARAMETER G(SI3ZR5N,SI:ZR:ZR:VA;0) 298.15 +2*GHSERSI+6*GHSERZR; 6000 N!
PARAMETER G(SI3ZR5N,SI:SI:ZR:N;0) 298.15 +5*GHSERSI+3*GHSERZR+GHSERNN; 6000 N!
PARAMETER G(SI3ZR5N,ZR:SI:ZR:N,VA;0) 298.15 -129219; 6000 N  !
PARAMETER G(SI3ZR5N,ZR:SI:ZR:N,VA;1) 298.15 +298340; 6000 N  !

PHASE SIZR2  %  2 1   2 !
CONSTITUENT SIZR2  :SI : ZR :  !
PARAMETER G(SIZR2,SI:ZR;0)298.15 -286870+422.93*T-72.43244*T*LN(T)
-.00546177*T**2-4.0442633E-09*T**3+306730.45*T**(-1); 6000 N  !

PHASE SIZR3  %  2 1   3 !
CONSTITUENT SIZR3  :SI : ZR :  !
PARAMETER G(SIZR3,SI:ZR;0) 298.15 -319950+478.25*T-82.328*T*LN(T)
-.0263963*T**2+1.54326E-06*T**3-34700*T**(-1); 6000 N  !

LIST_OF_REFERENCES
NUMBER  SOURCE
  ! 
 
