
$ C.Zhou et al. USTB 2018.7.12
$
 ELEMENT /-   ELECTRON_GAS              0.0000E+00  0.0000E+00  0.0000E+00!
 ELEMENT VA   VACUUM                    0.0000E+00  0.0000E+00  0.0000E+00!
 ELEMENT CO   HCP_A3                    5.8933E+01  0.0000E+00  0.0000E+00!
 ELEMENT NI   FCC_A1                    5.8690E+01  4.7870E+03  2.9796E+01!
 ELEMENT TI   HCP_A3                    4.7880E+01  4.8100E+03  3.0648E+01!


 FUNCTION GHSERCO    2.98140E+02  +310.241+133.36601*T-25.0861*T*LN(T)
     -.002654739*T**2-1.7348E-07*T**3+72527*T**(-1);  1.76800E+03  Y
      -17197.666+253.28374*T-40.5*T*LN(T)+9.3488E+30*T**(-9);  6.00000E+03  
     N !
 FUNCTION GLIQCO     2.98140E+02  +GHSERCO#+15085.037-8.931932*T
     -2.19801E-21*T**7;  1.76800E+03  Y
      -846.61+243.599944*T-40.5*T*LN(T);  6.00000E+03  N !
 FUNCTION GFCCCO     2.98150E+02  +GHSERCO#+427.591-.615248*T;   6.00000E+03 
       N !
 FUNCTION GBCCCO     2.98150E+02  +GHSERCO#+2938-.7138*T;   6.00000E+03   N !
 FUNCTION GHSERNI    2.98140E+02  -5179.159+117.854*T-22.096*T*LN(T)
     -.0048407*T**2;  1.72800E+03  Y
      -27840.62+279.134977*T-43.1*T*LN(T)+1.12754E+31*T**(-9);  3.00000E+03  
     N !
 FUNCTION GLIQNI     2.98140E+02  +GHSERNI#+16414.686-9.397*T
     -3.82318E-21*T**7;  1.72800E+03  Y
      -9549.817+268.597977*T-43.1*T*LN(T);  3.00000E+03  N !
 FUNCTION GBCCNI     2.98140E+02  +GHSERNI#+8715.084-3.556*T;  3.00000E+03  
     N !
 FUNCTION GHCPNI     2.98140E+02  +GHSERNI#+1046+1.2552*T;  3.00000E+03  N !
 FUNCTION GHSERTI    2.98140E+02  -8059.921+133.615208*T-23.9933*T*LN(T)
     -.004777975*T**2+1.06716E-07*T**3+72636*T**(-1);  9.00000E+02  Y
      -7811.815+132.988068*T-23.9887*T*LN(T)-.0042033*T**2-9.0876E-08*T**3
     +42680*T**(-1);  1.15500E+03  Y
      +908.837+66.976538*T-14.9466*T*LN(T)-.0081465*T**2+2.02715E-07*T**3
     -1477660*T**(-1);  1.94100E+03  Y
      -124526.786+638.806871*T-87.2182461*T*LN(T)+.008204849*T**2
     -3.04747E-07*T**3+36699805*T**(-1);  4.00000E+03  N !
 FUNCTION GLIQTI     2.98140E+02  +4134.494+126.63427*T-23.9933*T*LN(T)
     -.004777975*T**2+1.06716E-07*T**3+72636*T**(-1);  9.00000E+02  Y
      +4382.601+126.00713*T-23.9887*T*LN(T)-.0042033*T**2-9.0876E-08*T**3
     +42680*T**(-1);  1.15500E+03  Y
      +13103.253+59.9956*T-14.9466*T*LN(T)-.0081465*T**2+2.02715E-07*T**3
     -1477660*T**(-1);  1.30000E+03  Y
      +369519.198-2554.0225*T+342.059267*T*LN(T)-.163409355*T**2
     +1.2457117E-05*T**3-67034516*T**(-1);  1.94100E+03  Y
      -19887.066+298.7367*T-46.29*T*LN(T);  4.00000E+03  N !
 FUNCTION GFCCTI     2.98140E+02  +GHSERTI#+6000-.1*T;  4.00000E+03  N !
 FUNCTION GBCCTI     2.98140E+02  -1272.064+134.71418*T-25.5768*T*LN(T)
     -6.63845E-04*T**2-2.78803E-07*T**3+7208*T**(-1);  1.15500E+03  Y
      +6667.385+105.366379*T-22.3771*T*LN(T)+.00121707*T**2-8.4534E-07*T**3
     -2002750*T**(-1);  1.94100E+03  Y
      +26483.26-182.426471*T+19.0900905*T*LN(T)-.02200832*T**2
     +1.228863E-06*T**3+1400501*T**(-1);  4.00000E+03  N !
 FUNCTION B2COVA     2.98150E+02  +135000-.2*R#*T;   6.00000E+03   N !
 FUNCTION LB2COVA    298.15 0.0; 6000.00  N !
 FUNCTION B2NIVA     2.98150E+02  +162397.3-27.40575*T-.2*R#*T;   
     6.00000E+03   N !
 FUNCTION LB2NIVA    2.98150E+02  -64024.38+26.49419*T;   6.00000E+03   N !
 FUNCTION B2TIVA     2.98150E+02  +150000-.2*R#*T;   6.00000E+03   N !
 FUNCTION LB2TIVA    298.15 0.0; 6000.00  N !
 FUNCTION U1CONI     298.15 0.0; 6000.00  N !
 FUNCTION U4CONI     298.15 0.0; 6000.00  N !
 FUNCTION CO3NI      2.98150E+02  +3*U1CONI#;   6.00000E+03   N !
 FUNCTION CO2NI2     2.98150E+02  +4*U1CONI#;   6.00000E+03   N !
 FUNCTION CONI3      2.98150E+02  +3*U1CONI#;   6.00000E+03   N !
 FUNCTION U1COTI     2.98150E+02  -21058.7+7.8*T;   6.00000E+03   N !
 FUNCTION U4COTI     2.98150E+02  -1000+.6*T;   6.00000E+03   N !
 FUNCTION CO3TI      2.98150E+02  +3*U1COTI#;   6.00000E+03   N !
 FUNCTION CO2TI2     2.98150E+02  +4*U1COTI#;   6.00000E+03   N !
 FUNCTION COTI3      2.98150E+02  +3*U1COTI#;   6.00000E+03   N !
 FUNCTION U1NITI     2.98150E+02  -14997.6+2.9844*T;   6.00000E+03   N !
 FUNCTION U4NITI     2.98150E+02  -3400.1;   6.00000E+03   N !
 FUNCTION NI3TI      2.98150E+02  +3*U1NITI#;   6.00000E+03   N !
 FUNCTION NI2TI2     2.98150E+02  +4*U1NITI#;   6.00000E+03   N !
 FUNCTION NITI3      2.98150E+02  +3*U1NITI#;   6.00000E+03   N !
 FUNCTION CONITI2    2.98150E+02  +U1CONI#+2*U1COTI#+2*U1NITI#;   
     6.00000E+03   N !
 FUNCTION CONI2TI    2.98150E+02  +2*U1CONI#+U1COTI#+2*U1NITI#-3101.8;   
     6.00000E+03   N !
 FUNCTION CO2NITI    2.98150E+02  +2*U1CONI#+2*U1COTI#+U1NITI#-8663.3
     +5.8011*T;   6.00000E+03   N !
 FUNCTION UN_ASS 298.15 0; 300 N !

 TYPE_DEFINITION % SEQ *!
 DEFINE_SYSTEM_DEFAULT SPECIE 2 !
 DEFAULT_COMMAND DEF_SYS_ELEMENT VA !


$ THIS PHASE HAS A DISORDERED CONTRIBUTION FROM BCC_A2
 TYPE_DEFINITION & GES AMEND_PHASE_DESCRIPTION B2 DIS_PART BCC_A2,,,!                  
 PHASE B2  %&  3 .5   .5   3 !
    CONSTITUENT B2  :CO,NI,TI,VA : CO,NI,TI,VA : VA :  !

       PARA G(B2,CO:CO:VA;0) 298.15 0; 6000 N!
       PARA G(B2,NI:CO:VA;0) 298.15 0; 6000 N!
   PARAMETER G(B2,TI:CO:VA;0)  2.98150E+02  -53950+14.03*T;   6.00000E+03   
  N REF:0 !
   PARAMETER TC(B2,TI:CO:VA;0)  2.98150E+02  -500;   6.00000E+03   N REF:0 !
   PARAMETER G(B2,VA:CO:VA;0)  2.98150E+02  +.5*B2COVA#-.5*LB2COVA#;   
  6.00000E+03   N REF:0 !
       PARA G(B2,CO:NI:VA;0) 298.15 0; 6000 N!
       PARA G(B2,NI:NI:VA;0) 298.15 0; 6000 N!
   PARAMETER G(B2,TI:NI:VA;0)  2.98150E+02  -33193.7+10.284*T;   6.00000E+03 
    N REF:0 !
   PARAMETER G(B2,VA:NI:VA;0)  2.98150E+02  +.5*B2NIVA#-.5*LB2NIVA#;   
  6.00000E+03   N REF:0 !
   PARAMETER G(B2,CO:TI:VA;0)  2.98150E+02  -53950+14.03*T;   6.00000E+03   
  N REF:0 !
   PARAMETER TC(B2,CO:TI:VA;0)  2.98150E+02  -500;   6.00000E+03   N REF:0 !
   PARAMETER G(B2,NI:TI:VA;0)  2.98150E+02  -33193.7+10.284*T;   6.00000E+03 
    N REF:0 !
       PARA G(B2,TI:TI:VA;0) 298.15 0; 6000 N!
   PARAMETER G(B2,VA:TI:VA;0)  2.98150E+02  +.5*B2TIVA#-.5*LB2TIVA#;   
  6.00000E+03   N REF:0 !
   PARAMETER G(B2,CO:VA:VA;0)  2.98150E+02  +.5*B2COVA#-.5*LB2COVA#;   
  6.00000E+03   N REF:0 !
   PARAMETER G(B2,NI:VA:VA;0)  2.98150E+02  +.5*B2NIVA#-.5*LB2NIVA#;   
  6.00000E+03   N REF:0 !
   PARAMETER G(B2,TI:VA:VA;0)  2.98150E+02  +.5*B2TIVA#-.5*LB2TIVA#;   
  6.00000E+03   N REF:0 !
       PARA G(B2,VA:VA:VA;0) 298.15 0; 6000 N!
   PARAMETER G(B2,CO,TI:CO:VA;0)  2.98150E+02  -33978.3+.57*T;   6.00000E+03 
    N REF:0 !
   PARAMETER G(B2,CO,TI:CO:VA;1)  2.98150E+02  -9366-4.07*T;   6.00000E+03   
  N REF:0 !
   PARAMETER G(B2,CO:CO,TI:VA;0)  2.98150E+02  -33978.3+.57*T;   6.00000E+03 
    N REF:0 !
   PARAMETER G(B2,CO:CO,TI:VA;1)  2.98150E+02  -9366-4.07*T;   6.00000E+03   
  N REF:0 !
   PARAMETER G(B2,TI:CO,TI:VA;0)  2.98150E+02  40388;   6.00000E+03   N 
  REF:0 !
   PARAMETER G(B2,TI:CO,NI:VA;0)  2.98150E+02  -41489.8+40.7785*T;   
  6.00000E+03   N REF:0 !
   PARAMETER G(B2,NI,TI:NI:VA;0)  2.98150E+02  -55288.8+25.4416*T;   
  6.00000E+03   N REF:0 !
   PARAMETER G(B2,NI,TI:NI:VA;2)  2.98150E+02  +6010.11+3.95974*T;   
  6.00000E+03   N REF:0 !
   PARAMETER G(B2,NI:NI,TI:VA;0)  2.98150E+02  -55288.8+25.4416*T;   
  6.00000E+03   N REF:0 !
   PARAMETER G(B2,NI:NI,TI:VA;2)  2.98150E+02  +6010.11+3.95974*T;   
  6.00000E+03   N REF:0 !
   PARAMETER G(B2,TI:NI,TI:VA;0)  2.98150E+02  +60723.7-15.4024*T;   
  6.00000E+03   N REF:0 !
   PARAMETER G(B2,CO,TI:TI:VA;0)  2.98150E+02  40388;   6.00000E+03   N 
  REF:0 !
   PARAMETER G(B2,CO,NI:TI:VA;0)  2.98150E+02  -41489.8+40.7785*T;   
  6.00000E+03   N REF:0 !
   PARAMETER G(B2,NI,TI:TI:VA;0)  2.98150E+02  +60723.7-15.4024*T;   
  6.00000E+03   N REF:0 !


 TYPE_DEFINITION ' GES A_P_D BCC_A2 MAGNETIC  -1.0    4.00000E-01 !
 PHASE BCC_A2  %'  2 1   3 !
    CONSTITUENT BCC_A2  :CO,NI,TI,VA : VA :  !

   PARAMETER G(BCC_A2,CO:VA;0)  2.98150E+02  +GBCCCO#;   6.00000E+03   N 
  REF:0 !
   PARAMETER TC(BCC_A2,CO:VA;0)  2.98150E+02  1450;   6.00000E+03   N REF:0 !
   PARAMETER BMAGN(BCC_A2,CO:VA;0)  2.98150E+02  1.35;   6.00000E+03   N 
  REF:0 !
   PARAMETER G(BCC_A2,NI:VA;0)  2.98150E+02  +GBCCNI#;   6.00000E+03   N 
  REF:0 !
   PARAMETER TC(BCC_A2,NI:VA;0)  2.98150E+02  575;   6.00000E+03   N REF:0 !
   PARAMETER BMAGN(BCC_A2,NI:VA;0)  2.98150E+02  .85;   6.00000E+03   N 
  REF:0 !
   PARAMETER G(BCC_A2,TI:VA;0)  2.98140E+02  +GBCCTI#;  4.00000E+03  N REF:0 !
   PARAMETER G(BCC_A2,VA:VA;0)  2.98150E+02  +.2*R#*T;   6.00000E+03   N 
  REF:0 !
   PARAMETER G(BCC_A2,CO,VA:VA;0)  2.98150E+02  +B2COVA#+LB2COVA#;   
  6.00000E+03   N REF:0 !
   PARAMETER G(BCC_A2,CO,NI:VA;0)  2.98150E+02  2000;   6.00000E+03   N 
  REF:0 !
   PARAMETER TC(BCC_A2,CO,NI:VA;0)  2.98150E+02  556;   6.00000E+03   N 
  REF:0 !
   PARAMETER TC(BCC_A2,CO,NI:VA;1)  2.98150E+02  -288;   6.00000E+03   N 
  REF:0 !
   PARAMETER BMAGN(BCC_A2,CO,NI:VA;0)  2.98150E+02  .474;   6.00000E+03   N 
  REF:0 !
   PARAMETER G(BCC_A2,CO,NI,TI:VA;0)  2.98150E+02  +9266.1+29.6678*T;   
  6.00000E+03   N REF:0 !
   PARAMETER G(BCC_A2,CO,NI,TI:VA;1)  2.98150E+02  0;   6.00000E+03   N 
  REF:0 !
   PARAMETER G(BCC_A2,CO,NI,TI:VA;2)  2.98150E+02  0;   6.00000E+03   N 
  REF:0 !
   PARAMETER G(BCC_A2,CO,TI:VA;0)  2.98150E+02  -92966+12.38*T;   
  6.00000E+03   N REF:0 !
   PARAMETER TC(BCC_A2,CO,TI:VA;0)  2.98150E+02  -1400;   6.00000E+03   N 
  REF:0 !
   PARAMETER G(BCC_A2,NI,VA:VA;0)  2.98150E+02  +B2NIVA#+LB2NIVA#;   
  6.00000E+03   N REF:0 !
   PARAMETER G(BCC_A2,NI,TI:VA;0)  2.98150E+02  -97427.4+12.112*T;   
  6.00000E+03   N REF:0 !
   PARAMETER G(BCC_A2,NI,TI:VA;1)  2.98150E+02  -32315;   6.00000E+03   N 
  REF:0 !
   PARAMETER TC(BCC_A2,NI,TI:VA;0)  2.98150E+02  575;   6.00000E+03   N 
  REF:0 !
   PARAMETER BMAGN(BCC_A2,NI,TI:VA;0)  2.98150E+02  -.85;   6.00000E+03   N 
  REF:0 !
   PARAMETER G(BCC_A2,TI,VA:VA;0)  2.98150E+02  +B2TIVA#+LB2TIVA#;   
  6.00000E+03   N REF:0 !


 PHASE BCT_A5  %  2 1   1 !
    CONSTITUENT BCT_A5  :NI,TI : VA :  !

   PARAMETER G(BCT_A5,NI:VA;0)  2.98150E+02  +GHSERNI#+10023-4.556*T;   
  6.00000E+03   N REF:0 !
   PARAMETER G(BCT_A5,TI:VA;0)  2.98140E+02  +GHSERTI#+4602.2;  3.00000E+03  
  N REF:0 !


 PHASE C15  %  2 2   1 !
    CONSTITUENT C15  :CO,NI,TI : CO,NI,TI :  !

   PARAMETER G(C15,CO:CO;0)  2.98150E+02  +3*GHSERCO#+15000;   6.00000E+03   
  N REF:0 !
   PARAMETER G(C15,NI:CO;0)  2.98150E+02  +GHSERCO#+2*GHSERNI#+15000;   
  6.00000E+03   N REF:0 !
   PARAMETER G(C15,TI:CO;0)  2.98150E+02  +GHSERCO#+2*GHSERTI#+134650
  -13.07*T;   6.00000E+03   N REF:0 !
   PARAMETER G(C15,CO:NI;0)  2.98150E+02  +2*GHSERCO#+GHSERNI#+15000;   
  6.00000E+03   N REF:0 !
   PARAMETER G(C15,NI:NI;0)  2.98150E+02  +3*GHSERNI#+15000;   6.00000E+03   
  N REF:0 !
   PARAMETER G(C15,TI:NI;0)  2.98150E+02  +GHSERNI#+2*GHSERTI#+77303-11.21*T
  +30000;   6.00000E+03   N REF:0 !
   PARAMETER G(C15,CO:TI;0)  2.98150E+02  +2*GHSERCO#+GHSERTI#-104650
  +13.07*T;   6.00000E+03   N REF:0 !
   PARAMETER G(C15,NI:TI;0)  2.98150E+02  +2*GHSERNI#+GHSERTI#-77303+11.21*T;
     6.00000E+03   N REF:0 !
   PARAMETER G(C15,TI:TI;0)  2.98150E+02  +3*GHSERTI#+15000;   6.00000E+03   
  N REF:0 !
   PARAMETER G(C15,CO,NI:TI;0)  2.98150E+02  -71214.1+37.8894*T;   
  6.00000E+03   N REF:0 !


 PHASE C36  %  2 2   1 !
    CONSTITUENT C36  :CO,NI,TI : CO,NI,TI :  !

   PARAMETER G(C36,CO:CO;0)  2.98150E+02  +3*GHSERCO#+15000;   6.00000E+03   
  N REF:0 !
   PARAMETER G(C36,NI:CO;0)  2.98150E+02  +GHSERCO#+2*GHSERNI#+15000;   
  6.00000E+03   N REF:0 !
   PARAMETER G(C36,TI:CO;0)  2.98150E+02  +GHSERCO#+2*GHSERTI#+134650
  -13.38*T;   6.00000E+03   N REF:0 !
   PARAMETER G(C36,CO:NI;0)  2.98150E+02  +2*GHSERCO#+GHSERNI#+15000;   
  6.00000E+03   N REF:0 !
   PARAMETER G(C36,NI:NI;0)  2.98150E+02  +3*GHSERNI#+15000;   6.00000E+03   
  N REF:0 !
   PARAMETER G(C36,TI:NI;0)  2.98150E+02  +GHSERNI#+2*GHSERTI#+77303-11.21*T
  +30000;   6.00000E+03   N REF:0 !
   PARAMETER G(C36,CO:TI;0)  2.98150E+02  +2*GHSERCO#+GHSERTI#-104650
  +13.38*T;   6.00000E+03   N REF:0 !
   PARAMETER G(C36,NI:TI;0)  2.98150E+02  +2*GHSERNI#+GHSERTI#-77303+11.21*T;
     6.00000E+03   N REF:0 !
   PARAMETER G(C36,TI:TI;0)  2.98150E+02  +3*GHSERTI#+15000;   6.00000E+03   
  N REF:0 !
   PARAMETER G(C36,CO:CO,TI;0)  2.98150E+02  -41670+22.6*T;   6.00000E+03   
  N REF:0 !
   PARAMETER G(C36,TI:CO,TI;0)  2.98150E+02  -41670+22.6*T;   6.00000E+03   
  N REF:0 !
   PARAMETER G(C36,CO,NI:TI;0)  2.98150E+02  -53363.2+25.9123*T;   
  6.00000E+03   N REF:0 !


 PHASE CBCC_A12  %  2 1   1 !
    CONSTITUENT CBCC_A12  :CO,NI,TI : VA :  !

   PARAMETER G(CBCC_A12,CO:VA;0)  2.98150E+02  +GHSERCO#+4155;   6.00000E+03 
    N REF:0 !
   PARAMETER G(CBCC_A12,NI:VA;0)  2.98150E+02  +GHSERNI#+3556;   6.00000E+03 
    N REF:0 !
   PARAMETER G(CBCC_A12,TI:VA;0)  2.98140E+02  +GHSERTI#+4602.2;  
  4.00000E+03  N REF:0 !


 PHASE CUB_A13  %  2 1   1 !
    CONSTITUENT CUB_A13  :CO,NI,TI : VA :  !

   PARAMETER G(CUB_A13,CO:VA;0)  2.98150E+02  +GHSERCO#+3155;   6.00000E+03  
   N REF:0 !
   PARAMETER G(CUB_A13,NI:VA;0)  2.98150E+02  +GHSERNI#+2092;   6.00000E+03  
   N REF:0 !
   PARAMETER G(CUB_A13,TI:VA;0)  2.98140E+02  +GHSERTI#+7531.2;  4.00000E+03 
   N REF:0 !


 PHASE DIAMOND_A4  %  2 1   1 !
    CONSTITUENT DIAMOND_A4  :TI : VA :  !

   PARAMETER G(DIAMOND_A4,TI:VA;0)  2.98140E+02  +GHSERTI#+25000;  
  4.00000E+03  N REF:0 !


 PHASE E93  %  2 1   2 !
    CONSTITUENT E93  :CO,NI : TI :  !

   PARAMETER G(E93,CO:TI;0)  2.98150E+02  +GHSERCO#+2*GHSERTI#-109812
  +21.15*T;   6.00000E+03   N REF:0 !
   PARAMETER G(E93,NI:TI;0)  2.98150E+02  +GHSERNI#+2*GHSERTI#-82542.6
  +8.56*T;   6.00000E+03   N REF:0 !
   PARAMETER G(E93,CO,NI:TI;0)  2.98150E+02  -22063.4+12.1365*T;   
  6.00000E+03   N REF:0 !
   PARAMETER G(E93,CO,NI:TI;1)  2.98150E+02  -32606.1+23.7523*T;   
  6.00000E+03   N REF:0 !


 TYPE_DEFINITION ( GES A_P_D FCC_A1 MAGNETIC  -3.0    2.80000E-01 !
 PHASE FCC_A1  %(  2 1   1 !
    CONSTITUENT FCC_A1  :CO,NI,TI : VA :  !

   PARAMETER G(FCC_A1,CO:VA;0)  2.98150E+02  +GFCCCO#;   6.00000E+03   N 
  REF:0 !
   PARAMETER TC(FCC_A1,CO:VA;0)  2.98150E+02  1396;   6.00000E+03   N REF:0 !
   PARAMETER BMAGN(FCC_A1,CO:VA;0)  2.98150E+02  1.35;   6.00000E+03   N 
  REF:0 !
   PARAMETER G(FCC_A1,NI:VA;0)  2.98150E+02  +GHSERNI#;   6.00000E+03   N 
  REF:0 !
   PARAMETER TC(FCC_A1,NI:VA;0)  2.98150E+02  633;   6.00000E+03   N REF:0 !
   PARAMETER BMAGN(FCC_A1,NI:VA;0)  2.98150E+02  .52;   6.00000E+03   N 
  REF:0 !
   PARAMETER G(FCC_A1,TI:VA;0)  2.98140E+02  +GFCCTI#;  4.00000E+03  N REF:0 !
   PARAMETER G(FCC_A1,CO,NI:VA;0)  2.98150E+02  -800+1.2629*T;   6.00000E+03 
    N REF:0 !
   PARAMETER TC(FCC_A1,CO,NI:VA;0)  2.98150E+02  411;   6.00000E+03   N 
  REF:0 !
   PARAMETER TC(FCC_A1,CO,NI:VA;1)  2.98150E+02  -99;   6.00000E+03   N 
  REF:0 !
   PARAMETER BMAGN(FCC_A1,CO,NI:VA;0)  2.98150E+02  1.046;   6.00000E+03   N 
  REF:0 !
   PARAMETER BMAGN(FCC_A1,CO,NI:VA;1)  2.98150E+02  .165;   6.00000E+03   N 
  REF:0 !
   PARAMETER G(FCC_A1,CO,NI,TI:VA;0)  2.98150E+02  -96210.3+70.1003*T;   
  6.00000E+03   N REF:0 !
   PARAMETER G(FCC_A1,CO,NI,TI:VA;1)  2.98150E+02  -35407.8+34.8928*T;   
  6.00000E+03   N REF:0 !
   PARAMETER G(FCC_A1,CO,NI,TI:VA;2)  2.98150E+02  0;   
  6.00000E+03   N REF:0 !
   PARAMETER G(FCC_A1,CO,TI:VA;0)  2.98150E+02  -77800-7.4*T;   6.00000E+03  
   N REF:0 !
   PARAMETER G(FCC_A1,CO,TI:VA;1)  2.98150E+02  -1300;   6.00000E+03   N 
  REF:0 !
   PARAMETER TC(FCC_A1,CO,TI:VA;0)  2.98150E+02  -1400;   6.00000E+03   N 
  REF:0 !
   PARAMETER G(FCC_A1,NI,TI:VA;0)  2.98150E+02  -98143+6.706*T;   
  6.00000E+03   N REF:0 !
   PARAMETER G(FCC_A1,NI,TI:VA;1)  2.98150E+02  -62430;   6.00000E+03   N 
  REF:0 !
   PARAMETER TC(FCC_A1,NI,TI:VA;0)  2.98150E+02  -2500;   6.00000E+03   N 
  REF:0 !
   PARAMETER TC(FCC_A1,NI,TI:VA;1)  2.98150E+02  -3000;   6.00000E+03   N 
  REF:0 !
   PARAMETER TC(FCC_A1,NI,TI:VA;2)  2.98150E+02  1300;   6.00000E+03   N 
  REF:0 !


 TYPE_DEFINITION ) GES A_P_D HCP_A3 MAGNETIC  -3.0    2.80000E-01 !
 PHASE HCP_A3  %)  2 1   .5 !
    CONSTITUENT HCP_A3  :CO,NI,TI : VA :  !

   PARAMETER G(HCP_A3,CO:VA;0)  2.98150E+02  +GHSERCO#;   6.00000E+03   N 
  REF:0 !
   PARAMETER TC(HCP_A3,CO:VA;0)  2.98150E+02  1396;   6.00000E+03   N REF:0 !
   PARAMETER BMAGN(HCP_A3,CO:VA;0)  2.98150E+02  1.35;   6.00000E+03   N 
  REF:0 !
   PARAMETER G(HCP_A3,NI:VA;0)  2.98150E+02  +GHCPNI#;   6.00000E+03   N 
  REF:0 !
   PARAMETER TC(HCP_A3,NI:VA;0)  2.98150E+02  633;   6.00000E+03   N REF:0 !
   PARAMETER BMAGN(HCP_A3,NI:VA;0)  2.98150E+02  .52;   6.00000E+03   N 
  REF:0 !
   PARAMETER G(HCP_A3,TI:VA;0)  2.98140E+02  +GHSERTI#;  4.00000E+03  N 
  REF:0 !
   PARAMETER G(HCP_A3,CO,NI:VA;0)  2.98150E+02  -1620-.385*T;   6.00000E+03  
   N REF:0 !
   PARAMETER TC(HCP_A3,CO,NI:VA;0)  2.98150E+02  411;   6.00000E+03   N 
  REF:0 !
   PARAMETER TC(HCP_A3,CO,NI:VA;1)  2.98150E+02  -99;   6.00000E+03   N 
  REF:0 !
   PARAMETER BMAGN(HCP_A3,CO,NI:VA;0)  2.98150E+02  1.046;   6.00000E+03   N 
  REF:0 !
   PARAMETER BMAGN(HCP_A3,CO,NI:VA;1)  2.98150E+02  .165;   6.00000E+03   N 
  REF:0 !
   PARAMETER G(HCP_A3,CO,TI:VA;0)  2.98150E+02  -60033;   6.00000E+03   N 
  REF:0 !
   PARAMETER TC(HCP_A3,CO,TI:VA;0)  2.98150E+02  -1400;   6.00000E+03   N 
  REF:0 !
   PARAMETER G(HCP_A3,NI,TI:VA;0)  2.98150E+02  -20000;   6.00000E+03   N 
  REF:0 !


$ THIS PHASE HAS A DISORDERED CONTRIBUTION FROM FCC_A1                  
 TYPE_DEFINITION * GES AMEND_PHASE_DESCRIPTION L12 DIS_PART FCC_A1,,,!
 PHASE L12  %*  3 .75   .25   1 !
    CONSTITUENT L12  :CO,NI,TI : CO,NI,TI : VA :  !

       PARA G(L12,CO:CO:VA;0) 298.15 0; 6000 N!
   PARAMETER G(L12,NI:CO:VA;0)  2.98150E+02  +CONI3#;   6.00000E+03   N 
  REF:0 !
   PARAMETER G(L12,TI:CO:VA;0)  2.98150E+02  +CO3TI#;   6.00000E+03   N 
  REF:0 !
   PARAMETER TC(L12,TI:CO:VA;0)  2.98150E+02  -3140;   6.00000E+03   N REF:0 !
   PARAMETER G(L12,CO:NI:VA;0)  2.98150E+02  +CO3NI#;   6.00000E+03   N 
  REF:0 !
       PARA G(L12,NI:NI:VA;0) 298.15 0; 6000 N!
   PARAMETER G(L12,TI:NI:VA;0)  2.98150E+02  +NITI3#;   6.00000E+03   N 
  REF:0 !
   PARAMETER G(L12,CO:TI:VA;0)  2.98150E+02  +COTI3#;   6.00000E+03   N 
  REF:0 !
   PARAMETER TC(L12,CO:TI:VA;0)  2.98150E+02  -3140;   6.00000E+03   N REF:0 !
   PARAMETER G(L12,NI:TI:VA;0)  2.98150E+02  +NI3TI#;   6.00000E+03   N 
  REF:0 !
       PARA G(L12,TI:TI:VA;0) 298.15 0; 6000 N!
   PARAMETER G(L12,CO,TI:CO:VA;0)  2.98150E+02  -1.5*COTI3#+1.5*CO2TI2#
  +1.5*CO3TI#;   6.00000E+03   N REF:0 !
   PARAMETER G(L12,CO,TI:CO:VA;1)  2.98150E+02  +3*U4COTI#;   6.00000E+03   
  N REF:0 !
   PARAMETER TC(L12,CO,TI:CO:VA;0)  2.98150E+02  -6280;   6.00000E+03   N 
  REF:0 !
   PARAMETER G(L12,CO,NI:CO:VA;0)  2.98150E+02  -1.5*CONI3#+1.5*CO2NI2#
  +1.5*CO3NI#;   6.00000E+03   N REF:0 !
   PARAMETER G(L12,CO,NI:CO:VA;1)  2.98150E+02  +3*U4CONI#;   6.00000E+03   
  N REF:0 !
   PARAMETER G(L12,CO,NI,TI:CO:VA;0)  2.98150E+02  +CONI3#-1.5*CO2NI2#
  -1.5*CO3NI#+COTI3#-1.5*CO2TI2#-1.5*CO3TI#-1.5*CONITI2#-1.5*CONI2TI#
  +6*CO2NITI#;   6.00000E+03   N REF:0 !
   PARAMETER G(L12,CO:CO,TI:VA;1)  2.98150E+02  +U4COTI#;   6.00000E+03   N 
  REF:0 !
   PARAMETER G(L12,CO:CO,NI:VA;1)  2.98150E+02  +U4CONI#;   6.00000E+03   N 
  REF:0 !
   PARAMETER G(L12,NI,TI:CO:VA;0)  2.98150E+02  -1.5*CONI3#-1.5*COTI3#
  +1.5*CONITI2#+1.5*CONI2TI#;   6.00000E+03   N REF:0 !
   PARAMETER G(L12,NI,TI:CO:VA;1)  2.98150E+02  -.5*CONI3#+.5*COTI3#
  -1.5*CONITI2#+1.5*CONI2TI#+3*U4NITI#;   6.00000E+03   N REF:0 !
   PARAMETER G(L12,NI:CO,NI:VA;1)  2.98150E+02  +U4CONI#;   6.00000E+03   N 
  REF:0 !
   PARAMETER G(L12,NI:CO,TI:VA;1)  2.98150E+02  +U4COTI#;   6.00000E+03   N 
  REF:0 !
   PARAMETER G(L12,TI:CO,TI:VA;1)  2.98150E+02  +U4COTI#;   6.00000E+03   N 
  REF:0 !
   PARAMETER G(L12,TI:CO,NI:VA;1)  2.98150E+02  +U4CONI#;   6.00000E+03   N 
  REF:0 !
   PARAMETER G(L12,CO,NI:NI:VA;0)  2.98150E+02  +1.5*CONI3#+1.5*CO2NI2#
  -1.5*CO3NI#;   6.00000E+03   N REF:0 !
   PARAMETER G(L12,CO,NI:NI:VA;1)  2.98150E+02  +3*U4CONI#;   6.00000E+03   
  N REF:0 !
   PARAMETER G(L12,CO,NI,TI:NI:VA;0)  2.98150E+02  -1.5*CONI3#-1.5*CO2NI2#
  +CO3NI#+NITI3#-1.5*NI2TI2#-1.5*NI3TI#-1.5*CONITI2#+6*CONI2TI#-1.5*CO2NITI#;
     6.00000E+03   N REF:0 !
   PARAMETER G(L12,CO,TI:NI:VA;0)  2.98150E+02  -1.5*CO3NI#-1.5*NITI3#
  +1.5*CONITI2#+1.5*CO2NITI#;   6.00000E+03   N REF:0 !
   PARAMETER G(L12,CO,TI:NI:VA;1)  2.98150E+02  -.5*CO3NI#+.5*NITI3#
  -1.5*CONITI2#+1.5*CO2NITI#+3*U4COTI#;   6.00000E+03   N REF:0 !
   PARAMETER TC(L12,CO,TI:NI:VA;0)  2.98150E+02  -6280;   6.00000E+03   N 
  REF:0 !
   PARAMETER G(L12,CO:NI,TI:VA;1)  2.98150E+02  +U4NITI#;   6.00000E+03   N 
  REF:0 !
   PARAMETER G(L12,NI,TI:NI:VA;0)  2.98150E+02  -1.5*NITI3#+1.5*NI2TI2#
  +1.5*NI3TI#;   6.00000E+03   N REF:0 !
   PARAMETER G(L12,NI,TI:NI:VA;1)  2.98150E+02  +3*U4NITI#;   6.00000E+03   
  N REF:0 !
   PARAMETER G(L12,NI:NI,TI:VA;1)  2.98150E+02  +U4NITI#;   6.00000E+03   N 
  REF:0 !
   PARAMETER G(L12,TI:NI,TI:VA;1)  2.98150E+02  +U4NITI#;   6.00000E+03   N 
  REF:0 !
   PARAMETER G(L12,CO,TI:TI:VA;0)  2.98150E+02  +1.5*COTI3#+1.5*CO2TI2#
  -1.5*CO3TI#;   6.00000E+03   N REF:0 !
   PARAMETER G(L12,CO,TI:TI:VA;1)  2.98150E+02  +3*U4COTI#;   6.00000E+03   
  N REF:0 !
   PARAMETER TC(L12,CO,TI:TI:VA;0)  2.98150E+02  -6280;   6.00000E+03   N 
  REF:0 !
   PARAMETER G(L12,CO,NI:TI:VA;0)  2.98150E+02  -1.5*CO3TI#-1.5*NI3TI#
  +1.5*CONI2TI#+1.5*CO2NITI#;   6.00000E+03   N REF:0 !
   PARAMETER G(L12,CO,NI:TI:VA;1)  2.98150E+02  -.5*CO3TI#+.5*NI3TI#
  -1.5*CONI2TI#+1.5*CO2NITI#+3*U4CONI#;   6.00000E+03   N REF:0 !
   PARAMETER G(L12,CO,NI,TI:TI:VA;0)  2.98150E+02  -1.5*COTI3#-1.5*CO2TI2#
  +CO3TI#-1.5*NITI3#-1.5*NI2TI2#+NI3TI#+6*CONITI2#-1.5*CONI2TI#-1.5*CO2NITI#;
     6.00000E+03   N REF:0 !
   PARAMETER G(L12,NI,TI:TI:VA;0)  2.98150E+02  +1.5*NITI3#+1.5*NI2TI2#
  -1.5*NI3TI#;   6.00000E+03   N REF:0 !
   PARAMETER G(L12,NI,TI:TI:VA;1)  2.98150E+02  +3*U4NITI#;   6.00000E+03   
  N REF:0 !


 PHASE LIQUID  %  1  1.0  !
    CONSTITUENT LIQUID  :CO,NI,TI :  !

   PARAMETER G(LIQUID,CO;0)  2.98150E+02  +GLIQCO#;   6.00000E+03   N REF:0 !
   PARAMETER G(LIQUID,NI;0)  2.98150E+02  +GLIQNI#;   6.00000E+03   N REF:0 !
   PARAMETER G(LIQUID,TI;0)  2.98140E+02  +GLIQTI#;  4.00000E+03  N REF:0 !
   PARAMETER G(LIQUID,CO,NI;0)  2.98150E+02  1331;   6.00000E+03   N REF:0 !
   PARAMETER G(LIQUID,CO,NI,TI;0)  2.98150E+02  -26901.2+49.7896*T;   
  6.00000E+03   N REF:0 !
   PARAMETER G(LIQUID,CO,NI,TI;1)  2.98150E+02  46501.1;   6.00000E+03   N 
  REF:0 !
   PARAMETER G(LIQUID,CO,NI,TI;2)  2.98150E+02  +59905-92.2105*T;   
  6.00000E+03   N REF:0 !
   PARAMETER G(LIQUID,CO,TI;0)  2.98150E+02  -119780+15.06*T;   6.00000E+03  
   N REF:0 !
   PARAMETER G(LIQUID,CO,TI;1)  2.98150E+02  -2163;   6.00000E+03   N REF:0 !
   PARAMETER G(LIQUID,NI,TI;0)  2.98150E+02  -153707+34.8594*T;   
  6.00000E+03   N REF:0 !
   PARAMETER G(LIQUID,NI,TI;1)  2.98150E+02  -81824.8+25.8099*T;   
  6.00000E+03   N REF:0 !
   PARAMETER G(LIQUID,NI,TI;2)  2.98150E+02  -10.0779*T;   6.00000E+03   N 
  REF:0 !


 PHASE NI3TI  %  2 3   1 !
    CONSTITUENT NI3TI  :CO,NI,TI : CO,NI,TI :  !

   PARAMETER G(NI3TI,CO:CO;0)  2.98150E+02  +2*GHSERCO#+2*GFCCCO#+20000;   
  6.00000E+03   N REF:0 !
   PARAMETER G(NI3TI,NI:CO;0)  2.98150E+02  +.5*GHSERCO#+.5*GFCCCO#
  +1.5*GHCPNI#+1.5*GHSERNI#-20000+20000;   6.00000E+03   N REF:0 !
   PARAMETER G(NI3TI,TI:CO;0)  2.98150E+02  +.5*GHSERCO#+.5*GFCCCO#
  +1.5*GHSERTI#+1.5*GFCCTI#+101058.6-10.3572*T+20000;   6.00000E+03   N 
  REF:0 !
   PARAMETER G(NI3TI,CO:NI;0)  2.98150E+02  +1.5*GHSERCO#+1.5*GFCCCO#
  +.5*GHCPNI#+.5*GHSERNI#+20000;   6.00000E+03   N REF:0 !
   PARAMETER G(NI3TI,NI:NI;0)  2.98150E+02  +2*GHCPNI#+2*GHSERNI#;   
  6.00000E+03   N REF:0 !
   PARAMETER G(NI3TI,TI:NI;0)  2.98150E+02  +.5*GHCPNI#+.5*GHSERNI#
  +1.5*GHSERTI#+1.5*GFCCTI#+157744-18.6544*T;   6.00000E+03   N REF:0 !
   PARAMETER G(NI3TI,CO:TI;0)  2.98150E+02  +1.5*GHSERCO#+1.5*GFCCCO#
  +.5*GHSERTI#+.5*GFCCTI#-101058.6+10.3572*T;   6.00000E+03   N REF:0 !
   PARAMETER G(NI3TI,NI:TI;0)  2.98150E+02  +1.5*GHCPNI#+1.5*GHSERNI#
  +.5*GHSERTI#+.5*GFCCTI#-157744+18.6544*T;   6.00000E+03   N REF:0 !
   PARAMETER G(NI3TI,TI:TI;0)  2.98150E+02  +2*GHSERTI#+2*GFCCTI#;   
  6.00000E+03   N REF:0 !
   PARAMETER G(NI3TI,NI:NI,TI;0)  2.98150E+02  +143216-101.776*T;   
  6.00000E+03   N REF:0 !
   PARAMETER G(NI3TI,NI:NI,TI;1)  2.98150E+02  +109156-66.448*T;   
  6.00000E+03   N REF:0 !
   PARAMETER G(NI3TI,TI:NI,TI;1)  2.98150E+02  80000;   6.00000E+03   N 
  REF:0 !
   PARAMETER G(NI3TI,CO,NI:TI;0)  2.98150E+02  -39413.6+44.0012*T;   
  6.00000E+03   N REF:0 !
   PARAMETER G(NI3TI,CO,NI:TI;1)  2.98150E+02  -19000;   6.00000E+03   N 
  REF:0 !
   PARAMETER G(NI3TI,NI,TI:TI;0)  2.98150E+02  240000;   6.00000E+03   N 
  REF:0 !


 PHASE TAO  %  2 3   1 !
    CONSTITUENT TAO  :CO,NI,TI : CO,NI,TI :  !

   PARAMETER G(TAO,CO:CO;0)  2.98150E+02  +2*GHSERCO#+2*GFCCCO#+20000;   
  6.00000E+03   N REF:0 !
   PARAMETER G(TAO,NI:CO;0)  2.98150E+02  +.5*GHSERCO#+.5*GFCCCO#
  +1.5*GHCPNI#+1.5*GHSERNI#-20000+20000;   6.00000E+03   N REF:0 !
   PARAMETER G(TAO,TI:CO;0)  2.98150E+02  +.5*GHSERCO#+.5*GFCCCO#
  +1.5*GHSERTI#+1.5*GFCCTI#+101058.6-10.3572*T+20000+5300;   6.00000E+03   N 
  REF:0 !
   PARAMETER G(TAO,CO:NI;0)  2.98150E+02  +1.5*GHSERCO#+1.5*GFCCCO#
  +.5*GHCPNI#+.5*GHSERNI#+20000;   6.00000E+03   N REF:0 !
   PARAMETER G(TAO,NI:NI;0)  2.98150E+02  +2*GHCPNI#+2*GHSERNI#;   
  6.00000E+03   N REF:0 !
   PARAMETER G(TAO,TI:NI;0)  2.98150E+02  +.5*GHCPNI#+.5*GHSERNI#
  +1.5*GHSERTI#+1.5*GFCCTI#+157744-18.6544*T-5300;   6.00000E+03   N REF:0 !
   PARAMETER G(TAO,CO:TI;0)  2.98150E+02  +1.5*GHSERCO#+1.5*GFCCCO#
  +.5*GHSERTI#+.5*GFCCTI#-101058.6+10.3572*T-5300;   6.00000E+03   N REF:0 !
   PARAMETER G(TAO,NI:TI;0)  2.98150E+02  +1.5*GHCPNI#+1.5*GHSERNI#
  +.5*GHSERTI#+.5*GFCCTI#-157744+18.6544*T+5300;   6.00000E+03   N REF:0 !
   PARAMETER G(TAO,TI:TI;0)  2.98150E+02  +2*GHSERTI#+2*GFCCTI#;   
  6.00000E+03   N REF:0 !
   PARAMETER G(TAO,NI:NI,TI;0)  2.98150E+02  +143216-101.776*T;   
  6.00000E+03   N REF:0 !
   PARAMETER G(TAO,NI:NI,TI;1)  2.98150E+02  +109156-66.448*T;   6.00000E+03 
    N REF:0 !
   PARAMETER G(TAO,TI:NI,TI;1)  2.98150E+02  80000;   6.00000E+03   N REF:0 !
   PARAMETER G(TAO,CO,NI:TI;0)  2.98150E+02  -41486.6+45.0012*T;   
  6.00000E+03   N REF:0 !
   PARAMETER G(TAO,NI,TI:TI;0)  2.98150E+02  240000;   6.00000E+03   N REF:0 !

 LIST_OF_REFERENCES
 NUMBER  SOURCE
      0
  ! 

