
$ Database file written 19- 1-20
$
 ELEMENT /-   ELECTRON_GAS              0.0000E+00  0.0000E+00  0.0000E+00!
 ELEMENT VA   VACUUM                    0.0000E+00  0.0000E+00  0.0000E+00!
 ELEMENT FE   BCC_A2                    5.5847E+01  4.4890E+03  2.7280E+01!
 ELEMENT TA   BCC_A2                    1.8095E+02  5.6819E+03  4.1472E+01!
 ELEMENT TI   HCP_A3                    4.7880E+01  4.8100E+03  3.0648E+01!


 FUNCTION GHSERFE    2.98140E+02  +1225.7+124.134*T-23.5143*T*LN(T)
     -.00439752*T**2-5.8927E-08*T**3+77359*T**(-1);  1.81100E+03  Y
      -25383.581+299.31255*T-46*T*LN(T)+2.29603E+31*T**(-9);  6.00000E+03  N 
     !
 FUNCTION GPFEBCC    2.98150E+02  +YFEBCC#*EXP(ZFEBCC#);   6.00000E+03   N !
 FUNCTION GFEFCC     2.98140E+02  -1462.4+8.282*T-1.15*T*LN(T)+6.4E-04*T**2
     +GHSERFE#;  1.81100E+03  Y
      -27098.266+300.25256*T-46*T*LN(T)+2.78854E+31*T**(-9);  6.00000E+03  N 
     !
 FUNCTION GPFEFCC    2.98150E+02  +YFEFCC#*EXP(ZFEFCC#);   6.00000E+03   N !
 FUNCTION GFELIQ     2.98140E+02  +12040.17-6.55843*T+GHSERFE#
     -3.67516E-21*T**7;  1.81100E+03  Y
      -10838.83+291.302*T-46*T*LN(T);  6.00000E+03  N !
 FUNCTION GPFELIQ    2.98150E+02  +YFELIQ#*EXP(ZFELIQ#);   6.00000E+03   N !
 FUNCTION GPFEHCP    2.98150E+02  +YFEHCP#*EXP(ZFEHCP#);   6.00000E+03   N !
 FUNCTION GHSERTA    2.98140E+02  -7285.889+119.139857*T-23.7592624*T*LN(T)
     -.002623033*T**2+1.70109E-07*T**3-3293*T**(-1);  1.30000E+03  Y
      -22389.955+243.88676*T-41.137088*T*LN(T)+.006167572*T**2
     -6.55136E-07*T**3+2429586*T**(-1);  2.50000E+03  Y
      +229382.886-722.59722*T+78.5244752*T*LN(T)-.017983376*T**2
     +1.95033E-07*T**3-93813648*T**(-1);  3.29000E+03  Y
      -1042384.01+2985.49125*T-362.159132*T*LN(T)+.043117795*T**2
     -1.055148E-06*T**3+5.54714342E+08*T**(-1);  6.00000E+03  N !
 FUNCTION GHSERTI    2.98140E+02  -8059.921+133.615208*T-23.9933*T*LN(T)
     -.004777975*T**2+1.06716E-07*T**3+72636*T**(-1);  9.00000E+02  Y
      -7811.815+132.988068*T-23.9887*T*LN(T)-.0042033*T**2-9.0876E-08*T**3
     +42680*T**(-1);  1.15500E+03  Y
      +908.837+66.976538*T-14.9466*T*LN(T)-.0081465*T**2+2.02715E-07*T**3
     -1477660*T**(-1);  1.94099E+03  Y
      -124526.786+638.806871*T-87.2182461*T*LN(T)+.008204849*T**2
     -3.04747E-07*T**3+36699805*T**(-1);  4.00000E+03  N !
 FUNCTION GTIFCC     2.98150E+02  +6000-.1*T+GHSERTI#;   6.00000E+03   N !
 FUNCTION YFEBCC     2.98150E+02  +VFEBCC#*EXP(-EFEBCC#);   6.00000E+03   N !
 FUNCTION ZFEBCC     2.98150E+02  +1*LN(XFEBCC#);   6.00000E+03   N !
 FUNCTION YFEFCC     2.98150E+02  +VFEFCC#*EXP(-EFEFCC#);   6.00000E+03   N !
 FUNCTION ZFEFCC     2.98150E+02  +1*LN(XFEFCC#);   6.00000E+03   N !
 FUNCTION YFELIQ     2.98150E+02  +VFELIQ#*EXP(-EFELIQ#);   6.00000E+03   N !
 FUNCTION ZFELIQ     2.98150E+02  +1*LN(XFELIQ#);   6.00000E+03   N !
 FUNCTION YFEHCP     2.98150E+02  +VFEHCP#*EXP(-EFEHCP#);   6.00000E+03   N !
 FUNCTION ZFEHCP     2.98150E+02  +1*LN(XFEHCP#);   6.00000E+03   N !
 FUNCTION VFEBCC     2.98150E+02  +7.042095E-06*EXP(AFEBCC#);   6.00000E+03  
      N !
 FUNCTION EFEBCC     2.98150E+02  +1*LN(CFEBCC#);   6.00000E+03   N !
 FUNCTION XFEBCC     2.98150E+02  +1*EXP(.7874195*DFEBCC#)-1;   6.00000E+03  
      N !
 FUNCTION VFEFCC     2.98150E+02  +6.688726E-06*EXP(AFEFCC#);   6.00000E+03  
      N !
 FUNCTION EFEFCC     2.98150E+02  +1*LN(CFEFCC#);   6.00000E+03   N !
 FUNCTION XFEFCC     2.98150E+02  +1*EXP(.8064454*DFEFCC#)-1;   6.00000E+03  
      N !
 FUNCTION VFELIQ     2.98150E+02  +6.46677E-06*EXP(AFELIQ#);   6.00000E+03   
     N !
 FUNCTION EFELIQ     2.98150E+02  +1*LN(CFELIQ#);   6.00000E+03   N !
 FUNCTION XFELIQ     2.98150E+02  +1*EXP(.8484467*DFELIQ#)-1;   6.00000E+03  
      N !
 FUNCTION VFEHCP     2.98150E+02  +6.59121E-06*EXP(AFEHCP#);   6.00000E+03   
     N !
 FUNCTION EFEHCP     2.98150E+02  +1*LN(CFEHCP#);   6.00000E+03   N !
 FUNCTION XFEHCP     2.98150E+02  +1*EXP(.8064454*DFEHCP#)-1;   6.00000E+03  
      N !
 FUNCTION AFEBCC     2.98150E+02  +2.3987E-05*T+1.2845E-08*T**2;   
     6.00000E+03   N !
 FUNCTION CFEBCC     2.98150E+02  +2.20949565E-11+2.41329523E-16*T;   
     6.00000E+03   N !
 FUNCTION DFEBCC     2.98150E+02  +1*LN(BFEBCC#);   6.00000E+03   N !
 FUNCTION AFEFCC     2.98150E+02  +7.3097E-05*T;   6.00000E+03   N !
 FUNCTION CFEFCC     2.98150E+02  +2.62285341E-11+2.71455808E-16*T;   
     6.00000E+03   N !
 FUNCTION DFEFCC     2.98150E+02  +1*LN(BFEFCC#);   6.00000E+03   N !
 FUNCTION AFELIQ     2.98150E+02  +1.135E-04*T;   6.00000E+03   N !
 FUNCTION CFELIQ     2.98150E+02  +4.22534787E-12+2.71569924E-14*T;   
     6.00000E+03   N !
 FUNCTION DFELIQ     2.98150E+02  +1*LN(BFELIQ#);   6.00000E+03   N !
 FUNCTION AFEHCP     2.98150E+02  +7.3646E-05*T;   6.00000E+03   N !
 FUNCTION CFEHCP     2.98150E+02  +2.62285341E-11+2.71455808E-16*T;   
     6.00000E+03   N !
 FUNCTION DFEHCP     2.98150E+02  +1*LN(BFEHCP#);   6.00000E+03   N !
 FUNCTION BFEBCC     2.98150E+02  +1+2.80599565E-11*P+3.06481523E-16*T*P;   
     6.00000E+03   N !
 FUNCTION BFEFCC     2.98150E+02  +1+3.25236341E-11*P+3.36607808E-16*T*P;   
     6.00000E+03   N !
 FUNCTION BFELIQ     2.98150E+02  +1+4.98009787E-12*P+3.20078924E-14*T*P;   
     6.00000E+03   N !
 FUNCTION BFEHCP     2.98150E+02  +1+3.25236341E-11*P+3.36607808E-16*T*P;   
     6.00000E+03   N !
 FUNCTION GFE2TI     2.98150E+02  -74521.9494+347.611689*T-64.502*T*LN(T)
     -.0241491*T**2+3.936825E-06*T**3+14318.2906*T**(-1);   6.00000E+03   N !


 FUNCTION UN_ASS 298.15 0; 300 N !

 TYPE_DEFINITION % SEQ *!
 DEFINE_SYSTEM_DEFAULT SPECIE 2 !
 DEFAULT_COMMAND DEF_SYS_ELEMENT VA !


 PHASE LIQUID:L %  1  1.0  !
    CONSTITUENT LIQUID:L :FE,TA,TI :  !

   PARAMETER G(LIQUID,FE;0)  2.98150E+02  +GFELIQ#+GPFELIQ#;  
   6.00000E+03   
    N REF:0 !
   PARAMETER G(LIQUID,TA;0)  2.98140E+02  +29160.975-7.578729*T
    +GHSERTA#;   1.00000E+03  Y
    +43884.339-61.981795*T+.0279523*T*LN(T)-.012330066*T**2+
    6.14599E-07*T**3-3523338*T**(-1);  3.29000E+03  Y
     -6314.543+258.110873*T-41.84*T*LN(T);  6.00000E+03  N REF:0 !
    PARAMETER G(LIQUID,TI;0)  2.98140E+02  +12194.415-6.980938*T
   +GHSERTI#;   9.00000E+02  Y
   +12194.416-6.980938*T+GHSERTI#;  1.30000E+03  Y
   +369519.198-2554.0225*T+342.059267*T*LN(T)-.163409355*T**2
    +1.2457117E-05*T**3-67034516*T**(-1);  1.94099E+03  Y
   -19887.066+298.7367*T-46.29*T*LN(T);  4.00000E+03  N REF:0 !

$$$$References
    PARAMETER G(LIQUID,FE,TA;0)  2.98150E+02  -63613+12.922*T;
   6.00000E+03  N REF:0 !
   PARAMETER G(LIQUID,FE,TA;1)  2.98150E+02  11687;
   6.00000E+03   N REF:0 !
   PARAMETER G(LIQUID,FE,TI;0)  2.98150E+02  -76247+17.845*T;
   6.00000E+03  N REF:0 !
   PARAMETER G(LIQUID,FE,TI;1)  2.98150E+02  +7990-6.059*T;
   6.00000E+03   N REF:0 !
   PARAMETER G(LIQUID,FE,TI;2)  2.98150E+02  +4345-2.844*T;
   6.00000E+03   N REF:0 !
   PARAMETER G(LIQUID,TA,TI;0)  2.98150E+02  1000;
   6.00000E+03   N REF:0 !
   PARAMETER G(LIQUID,TA,TI;1)  2.98150E+02  -7000;
   6.00000E+03   N REF:0 !

$$$$This work
   PARAMETER G(LIQUID,FE,TA,TI;0)  2.98150E+02  11680;
   6.00000E+03   N REF:0 !
   PARAMETER G(LIQUID,FE,TA,TI;1)  2.98150E+02  11680;
   6.00000E+03   N REF:0 !
   PARAMETER G(LIQUID,FE,TA,TI;2)  2.98150E+02  11680;
   6.00000E+03   N REF:0 !



  TYPE_DEFINITION ) GES A_P_D FCC_A1 MAGNETIC  -3.0    2.80000E-01 !
  PHASE FCC_A1  %)  2 1   1 !
    CONSTITUENT FCC_A1  :FE,TA,TI : VA :  !

   PARAMETER TC(FCC_A1,FE:VA;0)  2.98150E+02  -201;
   6.00000E+03   N REF:0 !
   PARAMETER BMAGN(FCC_A1,FE:VA;0)  2.98150E+02  -2.1;
   6.00000E+03   N REF:0 !
   PARAMETER G(FCC_A1,FE:VA;0)  2.98150E+02  +GFEFCC#+GPFEFCC#;   
   6.00000E+03   N REF:0 !
   PARAMETER G(FCC_A1,TA:VA;0)  2.98150E+02  +16000+1.7*T+GHSERTA#;   
   6.00000E+03   N REF:0 !
   PARAMETER G(FCC_A1,TI:VA;0)  2.98140E+02  +GTIFCC#;
  4.00000E+03  N REF:0 !

$$$$References
   PARAMETER G(FCC_A1,FE,TA:VA;0)  2.98150E+02  -36165+14.191*T;   
  6.00000E+03   N REF:0 !
   PARAMETER G(FCC_A1,FE,TI:VA;0)  2.98150E+02  -56022+8.356*T;   
  6.00000E+03   N REF:0 !
   PARAMETER G(FCC_A1,FE,TI:VA;1)  2.98150E+02  +4773-4.029*T;
   6.00000E+03  N REF:0 !
   PARAMETER G(FCC_A1,FE,TI:VA;2)  2.98150E+02  +30021-12.614*T;   
  6.00000E+03   N REF:0 !
   PARAMETER G(FCC_A1,TA,TI:VA;0)  2.98150E+02  8500;
   6.00000E+03   N REF:0 !

TYPE_DEFINITION ( GES A_P_D BCC_A2 MAGNETIC  -1.0    4.00000E-01 !
 PHASE BCC_A2  %(  2 1   3 !
    CONSTITUENT BCC_A2  :FE,TA,TI : VA :  !

   PARAMETER TC(BCC_A2,FE:VA;0)  2.98150E+02  1043;   6.00000E+03 
    N REF:0 !
   PARAMETER BMAGN(BCC_A2,FE:VA;0)  2.98150E+02  2.22;   6.00000E+03 
   N  REF:0 !
   PARAMETER G(BCC_A2,FE:VA;0)  2.98150E+02  +GHSERFE#+GPFEBCC#;   
   6.00000E+03   N REF:0 !
   PARAMETER G(BCC_A2,TA:VA;0)  2.98150E+02  +GHSERTA#;   6.00000E+03   N 
  REF:0 !
   PARAMETER G(BCC_A2,TI:VA;0)  2.98140E+02  -1272.064+134.71418*T
  -25.5768*T*LN(T)-6.63845E-04*T**2-2.78803E-07*T**3+7208*T**(-1);  
  1.15500E+03  Y
   +6667.385+105.366379*T-22.3771*T*LN(T)+.00121707*T**2-8.4534E-07*T**3
  -2002750*T**(-1);  1.94099E+03  Y
   +26483.26-182.426471*T+19.0900905*T*LN(T)-.02200832*T**2
  +1.228863E-06*T**3+1400501*T**(-1);  4.00000E+03  N REF:0 !

$$$$References
   PARAMETER G(BCC_A2,FE,TA:VA;0)  2.98150E+02  -57995+26.801*T;   
  6.00000E+03   N REF:0 !
   PARAMETER G(BCC_A2,FE,TA:VA;1)  2.98150E+02  -6642;
   6.00000E+03   N REF:0 !
   PARAMETER G(BCC_A2,FE,TA:VA;2)  2.98150E+02  23837;
   6.00000E+03   N REF:0 !
   PARAMETER TC(BCC_A2,FE,TA:VA;0)  2.98150E+02  600;
   6.00000E+03   N REF:0 !
   PARAMETER G(BCC_A2,FE,TI:VA;0)  2.98150E+02  -66435+22.512*T;   
   6.00000E+03   N REF:0 !
   PARAMETER G(BCC_A2,FE,TI:VA;1)  2.98150E+02  +5968-5.083*T;
   6.00000E+03 N REF:0 !
   PARAMETER G(BCC_A2,FE,TI:VA;2)  2.98150E+02  +31454-20.139*T;   
   6.00000E+03   N REF:0 !
   PARAMETER TC(BCC_A2,FE,TI:VA;0)  2.98150E+02  637.79;
   6.00000E+03   N REF:0 !
   PARAMETER G(BCC_A2,TA,TI:VA;0)  2.98150E+02  12000;
   6.00000E+03   N REF:0 !
   PARAMETER G(BCC_A2,TA,TI:VA;1)  2.98150E+02  -2500;
   6.00000E+03   N  REF:0 !

$$$$This work
   PARAMETER G(BCC_A2,FE,TA,TI:VA;0)  2.98150E+02  +42794+8.684*T;
   6.00000E+03   N REF:0 !
   PARAMETER G(BCC_A2,FE,TA,TI:VA;1)  2.98150E+02  +21899+9.569*T;   
  6.00000E+03   N REF:0 !
   PARAMETER G(BCC_A2,FE,TA,TI:VA;2)  2.98150E+02  +39498+9.210*T;   
  6.00000E+03   N REF:0 !



$ THIS PHASE HAS A DISORDERED CONTRIBUTION FROM BCC_A2  

 TYPE_DEFINITION ' GES AMEND_PHASE_DESCRIPTION FETI DIS_PART BCC_A2,,,!                
 TYPE_DEFINITION & GES A_P_D FETI MAGNETIC  -1.0    4.00000E-01 !
 PHASE FETI  %&'  3 .5   .5   3 !
    CONSTITUENT FETI  :FE,TA,TI : FE,TA,TI : VA :  !

$$$$Reference
       PARA G(FETI,FE:FE:VA;0) 298.15 0; 6000 N! 
   PARAMETER G(FETI,TI:FE:VA;0)  2.98150E+02  -33946.4164-46.685*T
  +8.663*T*LN(T)-.01853*T**2+5.56492656E-06*T**3;   6.00000E+03   N 
   REF:0 !
   PARAMETER TC(FETI,TI:FE:VA;0)  2.98150E+02  -1325;   6.00000E+03   
   N REF:0 !
       PARA G(FETI,TA:TA:VA;0) 298.15 0; 6000 N!
     PARAMETER G(FETI,FE:TI:VA;0)  2.98150E+02  -33946.4164-46.685*T
  +8.663*T*LN(T)-.01853*T**2+5.56492656E-06*T**3;   6.00000E+03   N REF:0 !
   PARAMETER TC(FETI,FE:TI:VA;0)  2.98150E+02  -1325;   6.00000E+03   
    N REF:0 ! 
       PARA G(FETI,TI:TI:VA;0) 298.15 0; 6000 N!
   PARAMETER G(FETI,FE,TI:FE:VA;0)  2.98150E+02  -10971;   6.00000E+03  
    N  REF:0 !
   PARAMETER G(FETI,FE:FE,TI:VA;0)  2.98150E+02  -10971;   6.00000E+03  
   N  REF:0 !
   PARAMETER G(FETI,FE,TI:FE:VA;1)  2.98150E+02  -13764;   6.00000E+03
    N  REF:0 !
   PARAMETER G(FETI,FE:FE,TI:VA;1)  2.98150E+02  -13764;   6.00000E+03
   N REF:0 !
   PARAMETER G(FETI,TI:FE,TI:VA;0)  2.98150E+02  -6097;   6.00000E+03
   N  REF:0 !
   PARAMETER G(FETI,FE,TI:TI:VA;0)  2.98150E+02  -6097;   6.00000E+03
   N REF:0 !
   PARAMETER G(FETI,TI:FE,TI:VA;1)  2.98150E+02  12256;   6.00000E+03
   N REF:0 !
   PARAMETER G(FETI,FE,TI:TI:VA;1)  2.98150E+02  12256;   6.00000E+03
   N REF:0 !

$$$$This work
  PARAMETER G(FETI,TA:FE:VA;0)  2.98150E+02  -5149;   6.00000E+03
   N REF:0 !
  PARAMETER G(FETI,FE:TA:VA;0)  2.98150E+02  -5149;   6.00000E+03 
  N REF:0 !
  PARAMETER G(FETI,TI:TA:VA;0)  2.98150E+02  5000;   6.00000E+03
   N REF:0 !
  PARAMETER G(FETI,TA:TI:VA;0)  2.98150E+02  5000;   6.00000E+03
   N REF:0 !
   PARAMETER G(FETI,TA,TI:FE:VA;0)  2.98150E+02  -5168+0.482*T;
   6.00000E+03   N REF:0 !
   PARAMETER G(FETI,FE:TA,TI:VA;0)  2.98150E+02  -5168+0.482*T;
   6.00000E+03   N REF:0 !
   PARAMETER G(FETI,FE,TA:TI:VA;0)  2.98150E+02  6721+25.37*T;
   6.00000E+03   N REF:0 !
   PARAMETER G(FETI,TI:FE,TA:VA;0)  2.98150E+02  6721+25.37*T;
   6.00000E+03   N REF:0 !
   PARAMETER G(FETI,FE,TI:TA:VA;0)  2.98150E+02  +7429+1.894*T;
   6.00000E+03   N REF:0 !
   PARAMETER G(FETI,TA:FE,TI:VA;0)  2.98150E+02  +7429+1.894*T;
   6.00000E+03   N REF:0 !

 TYPE_DEFINITION * GES A_P_D HCP_A3 MAGNETIC  -3.0    2.80000E-01 !
 PHASE HCP_A3  %*  2 1   .5 !
    CONSTITUENT HCP_A3  :FE,TA,TI : VA :  !

   PARAMETER G(HCP_A3,FE:VA;0)  2.98140E+02  -3705.78+12.591*T-1.15*T*LN(T)
  +6.4E-04*T**2+GHSERFE#+GPFEHCP#;  1.81100E+03  Y
   -3957.199+5.24951*T+GHSERFE#+4.9251E+30*T**(-9)+GPFEHCP#;  6.00000E+03  N 
  REF:0 !
   PARAMETER G(HCP_A3,TA:VA;0)  2.98150E+02  +12000+2.4*T+GHSERTA#;   
  6.00000E+03   N REF:0 !
   PARAMETER G(HCP_A3,TI:VA;0)  2.98140E+02  +GHSERTI#;  4.00000E+03  N 
  REF:0 !
   PARAMETER G(HCP_A3,FE,TI:VA;0)  2.98150E+02  -10000+15*T;   6.00000E+03   
  N REF:0 !
   PARAMETER G(HCP_A3,TA,TI:VA;0)  2.98150E+02  8500;   6.00000E+03   N 
  REF:0 !


$$$$FE2TATI IS FE2(TA,TI) PHASE 

 PHASE FE2TATI  %  2 2   1 !
    CONSTITUENT FE2TATI  :FE,TA,TI : FE,TA,TI :  !
$$$$References
   PARAMETER G(FE2TATI,FE:FE;0)  2.98150E+02  +15000+3*GHSERFE#;   6.00000E+03   
  N REF:0 !
   PARAMETER G(FE2TATI,TA:FE;0)  2.98150E+02  +109607-39.984*T+3.183*T*LN(T)
  +2*GHSERTA#+GHSERFE#;   6.00000E+03   N REF:0 !
   PARAMETER G(FE2TATI,TI:FE;0)  2.98150E+02  +104521.949-347.611689*T
  +64.502*T*LN(T)+.0241491*T**2-3.936825E-06*T**3-14318.2906*T**(-1)
  +2*GHSERTI#+GHSERFE#;   6.00000E+03   N REF:0 !
   PARAMETER G(FE2TATI,FE:TA;0)  2.98150E+02  -79607+39.984*T-3.183*T*LN(T)
  +2*GHSERFE#+GHSERTA#;   6.00000E+03   N REF:0 !
   PARAMETER G(FE2TATI,TA:TA;0)  2.98150E+02  +15000+3*GHSERTA#;   6.00000E+03   
  N REF:0 !
   PARAMETER G(FE2TATI,TI:TA;0)  2.98150E+02  +2*GHSERTI#+GHSERTA#+15000;   
  6.00000E+03   N REF:0 !
   PARAMETER G(FE2TATI,FE:TI;0)  2.98150E+02  +GFE2TI#;   6.00000E+03   
  N REF:0 !
   PARAMETER G(FE2TATI,TA:TI;0)  2.98150E+02  +GHSERTI#+2*GHSERTA#+15000;   
  6.00000E+03   N REF:0 !
   PARAMETER G(FE2TATI,TI:TI;0)  2.98150E+02  +15000+3*GHSERTI#;   6.00000E+03   
  N REF:0 !
   PARAMETER G(FE2TATI,FE,TI:FE;0)  2.98150E+02  3177;   6.00000E+03  N REF:0 !
   PARAMETER G(FE2TATI,FE:FE,TA;0)  2.98150E+02  19926;  6.00000E+03  N REF:0 !
   PARAMETER G(FE2TATI,FE,TA:TA;0)  2.98150E+02  26806;  6.00000E+03  N REF:0 !
   PARAMETER G(FE2TATI,FE,TI:TI;0)  2.98150E+02  3177;  6.00000E+03  N REF:0 !

$$$$This work
   PARAMETER G(FE2TATI,FE:TA,TI;0)  2.98150E+02  -18227-4.383*T;
   6.00000E+03   N 
  REF:0 !
   PARAMETER G(FE2TATI,FE:TA,TI;1)  2.98150E+02  +11405-1.581*T; 
  6.00000E+03   N 
  REF:0 !
   PARAMETER G(FE2TATI,FE,TA:TI;0)  2.98150E+02  +34582;   6.00000E+03   N 
  REF:0 !


 PHASE FE7TA6  %  4 1   4   2   6 !
    CONSTITUENT FE7TA6  :FE,TA,TI : TA,TI : FE,TA,TI : FE,TA,TI :  !
$$$$References
   PARAMETER G(FE7TA6,FE:TA:TA:FE;0)  2.98150E+02  +7*GHSERFE#+6*GHSERTA#-330960
  +66.951*T;   6.00000E+03   N REF:0 !
   PARAMETER G(FE7TA6,TA:TA:TA:FE;0)  2.98150E+02  +6*GHSERFE#+7*GHSERTA#-281029
  +70.779*T;   6.00000E+03   N REF:0 !
   PARAMETER G(FE7TA6,TA:TA:FE:FE;0)  2.98150E+02  +8*GHSERFE#+5*GHSERTA#
   -113490;
     6.00000E+03   N REF:0 !
   PARAMETER G(FE7TA6,FE:TA:FE:FE;0)  2.98150E+02  +9*GHSERFE#+4*GHSERTA#-86940; 
    6.00000E+03   N REF:0 !
   PARAMETER G(FE7TA6,FE:TA:FE:TA;0)  2.98150E+02  +3*GHSERFE#+10*GHSERTA#
  +414750;   6.00000E+03   N REF:0 !
   PARAMETER G(FE7TA6,FE:TA:TA:TA;0)  2.98150E+02  +GHSERFE#+12*GHSERTA#+80020;  
   6.00000E+03   N REF:0 !
   PARAMETER G(FE7TA6,TA:TA:FE:TA;0)  2.98150E+02  +2*GHSERFE#+11*GHSERTA#
  +368270;   6.00000E+03   N REF:0 !
   PARAMETER G(FE7TA6,TA:TA:TA:TA;0)  2.98150E+02  +13*GHSERTA#+139230;   
  6.00000E+03   N REF:0 !
   PARAMETER G(FE7TA6,FE:TA:FE,TA:FE;0)  2.98150E+02  -79399;   6.00000E+03   N 
  REF:0 !


$$$$This work
   PARAMETER G(FE7TA6,FE:TA:FE:TI;0)  2.98150E+02  +3*GHSERFE#+4*GHSERTA#
  +6*GHSERTI#;   6.00000E+03   N REF:0 !

   PARAMETER G(FE7TA6,FE:TA:TA:TI;0)  2.98150E+02  +GHSERFE#+6*GHSERTA#
  +6*GHSERTI#;   6.00000E+03   N REF:0 !

   PARAMETER G(FE7TA6,FE:TA:TI:FE;0)  2.98150E+02  +7*GHSERFE#+2*GHSERTI#
  +4*GHSERTA#;   6.00000E+03   N REF:0 !

   PARAMETER G(FE7TA6,FE:TA:TI:TA;0)  2.98150E+02  +GHSERFE#+2*GHSERTI#
  +10*GHSERTA#;   6.00000E+03   N REF:0 !

   PARAMETER G(FE7TA6,FE:TA:TI:TI;0)  2.98150E+02  +GHSERFE#+8*GHSERTI#
  +4*GHSERTA#;   6.00000E+03   N REF:0 !

   PARAMETER G(FE7TA6,FE:TI:FE:FE;0)  2.98150E+02  +4*GFE2TI#+GHSERFE#+65000;   
  6.00000E+03   N REF:0 !

   PARAMETER G(FE7TA6,FE:TI:FE:TA;0)  2.98150E+02  +3*GHSERFE#+4*GHSERTI#
  +6*GHSERTA#;   6.00000E+03   N REF:0 !

   PARAMETER G(FE7TA6,FE:TI:FE:TI;0)  2.98150E+02  +1.5*GFE2TI#+8.5*GHSERTI#
  +65000;   6.00000E+03   N REF:0 !

   PARAMETER G(FE7TA6,FE:TI:TA:FE;0)  2.98150E+02  +7*GHSERFE#+4*GHSERTI#
  +2*GHSERTA#-260084-6.773*T;   6.00000E+03   N REF:0 !

   PARAMETER G(FE7TA6,FE:TI:TA:TA;0)  2.98150E+02  +GHSERFE#+4*GHSERTI#
  +8*GHSERTA#;   6.00000E+03   N REF:0 !

   PARAMETER G(FE7TA6,FE:TI:TA:TI;0)  2.98150E+02  +GHSERFE#+10*GHSERTI#
  +2*GHSERTA#-50220+29.288*T;   6.00000E+03   N REF:0 !

   PARAMETER G(FE7TA6,FE:TI:TI:FE;0)  2.98150E+02  +3.5*GFE2TI#+2.5*GHSERTI#
  +65000;   6.00000E+03   N REF:0 !

   PARAMETER G(FE7TA6,FE:TI:TI:TA;0)  2.98150E+02  +GHSERFE#+6*GHSERTI#
  +6*GHSERTA#;   6.00000E+03   N REF:0 !

   PARAMETER G(FE7TA6,FE:TI:TI:TI;0)  2.98150E+02  +.5*GFE2TI#+11.5*GHSERTI#
  +65000;   6.00000E+03   N REF:0 !

   PARAMETER G(FE7TA6,TA:TA:FE:TI;0)  2.98150E+02  +2*GHSERFE#+6*GHSERTI#
  +5*GHSERTA#;   6.00000E+03   N REF:0 !

   PARAMETER G(FE7TA6,TA:TA:TA:TI;0)  2.98150E+02  
  +6*GHSERTI#+7*GHSERTA#+65000; 
    6.00000E+03   N REF:0 !

   PARAMETER G(FE7TA6,TA:TA:TI:FE;0)  2.98150E+02  +6*GHSERFE#+2*GHSERTI#
  +5*GHSERTA#;   6.00000E+03   N REF:0 !

   PARAMETER G(FE7TA6,TA:TA:TI:TA;0)  2.98150E+02  
   +2*GHSERTI#+11*GHSERTA#+65000;
     6.00000E+03   N REF:0 !

   PARAMETER G(FE7TA6,TA:TA:TI:TI;0)  2.98150E+02  +8*GHSERTI#+5*GHSERTA#
   +65000; 6.00000E+03   N REF:0 !

   PARAMETER G(FE7TA6,TA:TI:FE:FE;0)  2.98150E+02  +GHSERTA#+4*GHSERTI#
  +8*GHSERFE#;   6.00000E+03   N REF:0 !

   PARAMETER G(FE7TA6,TA:TI:FE:TA;0)  2.98150E+02  +7*GHSERTA#+4*GHSERTI#
  +2*GHSERFE#;   6.00000E+03   N REF:0 !

   PARAMETER G(FE7TA6,TA:TI:FE:TI;0)  2.98150E+02  +GHSERTA#+10*GHSERTI#
  +2*GHSERFE#;   6.00000E+03   N REF:0 !

   PARAMETER G(FE7TA6,TA:TI:TA:FE;0)  2.98150E+02  +3*GHSERTA#+4*GHSERTI#
  +6*GHSERFE#;   6.00000E+03   N REF:0 !

   PARAMETER G(FE7TA6,TA:TI:TA:TA;0)  2.98150E+02  +9*GHSERTA#+4*GHSERTI#
   +65000; 6.00000E+03   N REF:0 !

   PARAMETER G(FE7TA6,TA:TI:TA:TI;0)  2.98150E+02  +3*GHSERTA#+10*GHSERTI#
   +65000;  6.00000E+03   N REF:0 !

   PARAMETER G(FE7TA6,TA:TI:TI:FE;0)  2.98150E+02  +GHSERTA#+6*GHSERTI#
  +6*GHSERFE#;   6.00000E+03   N REF:0 !

   PARAMETER G(FE7TA6,TA:TI:TI:TA;0)  2.98150E+02  +7*GHSERTA#+6*GHSERTI#
    +65000; 6.00000E+03   N REF:0 !

   PARAMETER G(FE7TA6,TA:TI:TI:TI;0)  2.98150E+02  +GHSERTA#+12*GHSERTI#
   +65000;   6.00000E+03   N REF:0 !

   PARAMETER G(FE7TA6,TI:TA:FE:FE;0)  2.98150E+02  +GHSERTI#+4*GHSERTA#
  +8*GHSERFE#;   6.00000E+03   N REF:0 !

   PARAMETER G(FE7TA6,TI:TA:FE:TA;0)  2.98150E+02  +GHSERTI#+10*GHSERTA#
  +2*GHSERFE#;   6.00000E+03   N REF:0 !

   PARAMETER G(FE7TA6,TI:TA:FE:TI;0)  2.98150E+02  +7*GHSERTI#+4*GHSERTA#
  +2*GHSERFE#;   6.00000E+03   N REF:0 !

   PARAMETER G(FE7TA6,TI:TA:TA:FE;0)  2.98150E+02  +GHSERTI#+6*GHSERTA#
  +6*GHSERFE#;   6.00000E+03   N REF:0 !

   PARAMETER G(FE7TA6,TI:TA:TA:TA;0)  2.98150E+02  +GHSERTI#+12*GHSERTA#
   +65000;  6.00000E+03   N REF:0 !

   PARAMETER G(FE7TA6,TI:TA:TA:TI;0)  2.98150E+02  +7*GHSERTI#+6*GHSERTA#
   +65000; 6.00000E+03   N REF:0 !

   PARAMETER G(FE7TA6,TI:TA:TI:FE;0)  2.98150E+02  +3*GHSERTI#+4*GHSERTA#
  +6*GHSERFE#;   6.00000E+03   N REF:0 !

   PARAMETER G(FE7TA6,TI:TA:TI:TA;0)  2.98150E+02  +3*GHSERTI#+10*GHSERTA#
   +65000;    6.00000E+03   N REF:0 !

   PARAMETER G(FE7TA6,TI:TA:TI:TI;0)  2.98150E+02  +9*GHSERTI#+4*GHSERTA#
   +65000; 6.00000E+03   N REF:0 !

   PARAMETER G(FE7TA6,TI:TI:FE:FE;0)  2.98150E+02  +4*GFE2TI#+GHSERTI#
   +65000;  6.00000E+03   N REF:0 !

   PARAMETER G(FE7TA6,TI:TI:FE:TA;0)  2.98150E+02  +5*GHSERTI#+2*GHSERFE#
  +6*GHSERTA#;   6.00000E+03   N REF:0 !

   PARAMETER G(FE7TA6,TI:TI:FE:TI;0)  2.98150E+02  +10*GHSERTI#+GFE2TI#
   +65000;   6.00000E+03   N REF:0 !

   PARAMETER G(FE7TA6,TI:TI:TA:FE;0)  2.98150E+02  +5*GHSERTI#+6*GHSERFE#
  +2*GHSERTA#;   6.00000E+03   N REF:0 !

   PARAMETER G(FE7TA6,TI:TI:TA:TA;0)  2.98150E+02  +5*GHSERTI#+8*GHSERTA#
   +65000; 6.00000E+03   N REF:0 !

   PARAMETER G(FE7TA6,TI:TI:TA:TI;0)  2.98150E+02  +11*GHSERTI#+2*GHSERTA#
   +65000; 6.00000E+03   N REF:0 !

   PARAMETER G(FE7TA6,TI:TI:TI:FE;0)  2.98150E+02  +4*GHSERTI#+3*GFE2TI#
   +65000;   6.00000E+03   N REF:0 !

   PARAMETER G(FE7TA6,TI:TI:TI:TA;0)  2.98150E+02  +7*GHSERTI#+6*GHSERTA#
  +65000; 6.00000E+03   N REF:0 !

   PARAMETER G(FE7TA6,TI:TI:TI:TI;0)  2.98150E+02  +13*GHSERTI#+65000;   
  6.00000E+03   N REF:0 !

  PARAMETER G(FE7TA6,FE:TA,TI:TA:FE;0)  2.98150E+02  43009-27.917*T; 
  6.00000E+03   N REF:0 !
 LIST_OF_REFERENCES
 NUMBER  SOURCE
  ! 

