$$$$$$$$$$$$$$$$$$$$$$$$$$$$$$$$$$$$$$$$$$$$$$$$$$$$$$$$$$$$$$$$$$$$$$$$$
$$
$$                       CR-MO-NI-RE
$$                       sigma phase
$$
$$$$$$$$$$$$$$$$$$$$$$$$$$$$$$$$$$$$$$$$$$$$$$$$$$$$$$$$$$$$$$$$$$$$$$$$$

DEFAULT_COMMAND DEFINE-SYSTEM-ELEMENT VA /- !
DEFINE_SYSTEM_DEFAULT ELEMENT 2

$************************************************************************
$ELEMENT NAME STABLE_ELEM_REFERENCE    MASS      H298-H0     S298  !
$************************************************************************
$
 ELEMENT /-    ELECTRON_GAS         0.0000E+00   0.0000E+00   0.0000E+00!
 ELEMENT VA    VACUUM               0.0000E+00   0.0000E+00   0.0000E+00!
 ELEMENT CR   A2-bcc               1.0000E+01   1.0000E+03   1.0000E+01!
 ELEMENT MO   A2-bcc               1.0000E+01   1.0000E+03   1.0000E+01!
 ELEMENT NI   A1-fcc               1.0000E+01   1.0000E+03   1.0000E+01!
 ELEMENT RE   A3-hcp               1.0000E+01   1.0000E+03   1.0000E+01!
$
$************************************************************************
$ TYPE DEFINITION:
$************************************************************************
$
 TYPE_DEFINITION % SEQ *!
$
$************************************************************************
$ PARAMETERS and FUNCTIONS for each elements (in various phases):
$************************************************************************
$ 
 FUNCT EVTOJ  298.15 +96486; 40000 N !

$========================================================================
 FUNCT GHSERCR 298.15 0.0; 6000 N!
 FUNCT GHSERMO 298.15 0.0; 6000 N!
 FUNCT GHSERNI 298.15 0.0; 6000 N!
 FUNCT GHSERRE 298.15 0.0; 6000 N!

$================================================================= SQS ==
 FUNCT FLAGSQS 298.15 +1.0; 6000 N!    $ With or without you ...
$
 FUNCT SCRMOA1 298.15  +9800; 6000 N!  $-- Cr-Mo 
 FUNCT SCRMOA2 298.15 +34900; 6000 N!
 FUNCT SCRMOA3 298.15 +42300; 6000 N!
 FUNCT SCRNIA1 298.15 -54000; 6000 N!  $-- Cr-Ni 
 FUNCT SCRNIA2 298.15 +26300; 6000 N!
 FUNCT SCRNIA3 298.15 -55500; 6000 N!
 FUNCT SCRREA1 298.15  -6000; 6000 N!  $-- Cr-Re 
 FUNCT SCRREA2 298.15 -17200; 6000 N!
 FUNCT SCRREA3 298.15 +10000; 6000 N!
 FUNCT SMONIA1 298.15 -54200; 6000 N!  $-- Mo-Ni 
 FUNCT SMONIA2 298.15 +25800; 6000 N!
 FUNCT SMONIA3 298.15 -54000; 6000 N!
 FUNCT SMOREA1 298.15 -18100; 6000 N!  $-- Mo-Re 
 FUNCT SMOREA2 298.15 -20000; 6000 N!
 FUNCT SMOREA3 298.15  +2900; 6000 N!
 FUNCT SNIREA1 298.15  +7200; 6000 N!  $-- Ni-Re 
 FUNCT SNIREA2 298.15 -11200; 6000 N!
 FUNCT SNIREA3 298.15  +1400; 6000 N!


$************************************************************************
$ PHASE  NAME   Data-Type   Subl-No   Subl-Sites !
$  and CONSTITUENT : PHASE CONSTITUENT DEFINITIONS : !
$************************************************************************

 PHASE FCC_A1  %  2 1 1 !
   CONSTITUENT FCC_A1 : CR,MO,NI,RE : VA :  !
   PARAMETER G(FCC_A1,CR:VA;0)  298.15  0.39336*EVTOJ;  6000 N   REF0 !
   PARAMETER G(FCC_A1,MO:VA;0)  298.15  0.42876*EVTOJ;  6000 N   REF0 !
   PARAMETER G(FCC_A1,NI:VA;0)  298.15  +GHSERNI;       6000 N   REF0 !
   PARAMETER G(FCC_A1,RE:VA;0)  298.15  0.06325*EVTOJ;  6000 N   REF0 !
   PARAMETER G(FCC_A1,CR,MO:VA;0) 298.15 +FLAGSQS*SCRMOA1 ; 6000 N  SQS !
   PARAMETER G(FCC_A1,CR,NI:VA;0) 298.15 +FLAGSQS*SCRNIA1 ; 6000 N  SQS !
   PARAMETER G(FCC_A1,CR,RE:VA;0) 298.15 +FLAGSQS*SCRREA1 ; 6000 N  SQS !
   PARAMETER G(FCC_A1,MO,NI:VA;0) 298.15 +FLAGSQS*SMONIA1 ; 6000 N  SQS !
   PARAMETER G(FCC_A1,MO,RE:VA;0) 298.15 +FLAGSQS*SMOREA1 ; 6000 N  SQS !
   PARAMETER G(FCC_A1,NI,RE:VA;0) 298.15 +FLAGSQS*SNIREA1 ; 6000 N  SQS !

 PHASE BCC_A2  %  2 1 3 !
   CONSTITUENT BCC_A2 : CR,MO,NI,RE : VA :  !
   PARAMETER G(BCC_A2,CR:VA;0)  298.15  +GHSERCR;       6000 N   REF0 !
   PARAMETER G(BCC_A2,MO:VA;0)  298.15  +GHSERMO;       6000 N   REF0 !
   PARAMETER G(BCC_A2,NI:VA;0)  298.15  0.09248*EVTOJ;  6000 N   REF0 !
   PARAMETER G(BCC_A2,RE:VA;0)  298.15  0.31691*EVTOJ;  6000 N   REF0 !
   PARAMETER G(BCC_A2,CR,MO:VA;0) 298.15 +FLAGSQS*SCRMOA2 ; 6000 N  SQS !
   PARAMETER G(BCC_A2,CR,NI:VA;0) 298.15 +FLAGSQS*SCRNIA2 ; 6000 N  SQS !
   PARAMETER G(BCC_A2,CR,RE:VA;0) 298.15 +FLAGSQS*SCRREA2 ; 6000 N  SQS !
   PARAMETER G(BCC_A2,MO,NI:VA;0) 298.15 +FLAGSQS*SMONIA2 ; 6000 N  SQS !
   PARAMETER G(BCC_A2,MO,RE:VA;0) 298.15 +FLAGSQS*SMOREA2 ; 6000 N  SQS !
   PARAMETER G(BCC_A2,NI,RE:VA;0) 298.15 +FLAGSQS*SNIREA2 ; 6000 N  SQS !

 PHASE HCP_A3  %  2 1 0.5 !
   CONSTITUENT HCP_A3 : CR,MO,NI,RE : VA :  !
   PARAMETER G(HCP_A3,CR:VA;0)  298.15  0.40145*EVTOJ;  6000 N   REF0 !
   PARAMETER G(HCP_A3,MO:VA;0)  298.15  0.44389*EVTOJ;  6000 N   REF0 !
   PARAMETER G(HCP_A3,NI:VA;0)  298.15  0.02377*EVTOJ;  6000 N   REF0 !
   PARAMETER G(HCP_A3,RE:VA;0)  298.15  +GHSERRE;       6000 N   REF0 !
   PARAMETER G(HCP_A3,CR,MO:VA;0) 298.15 +FLAGSQS*SCRMOA3 ; 6000 N  SQS !
   PARAMETER G(HCP_A3,CR,NI:VA;0) 298.15 +FLAGSQS*SCRNIA3 ; 6000 N  SQS !
   PARAMETER G(HCP_A3,CR,RE:VA;0) 298.15 +FLAGSQS*SCRREA3 ; 6000 N  SQS !
   PARAMETER G(HCP_A3,MO,NI:VA;0) 298.15 +FLAGSQS*SMONIA3 ; 6000 N  SQS !
   PARAMETER G(HCP_A3,MO,RE:VA;0) 298.15 +FLAGSQS*SMOREA3 ; 6000 N  SQS !
   PARAMETER G(HCP_A3,NI,RE:VA;0) 298.15 +FLAGSQS*SNIREA3 ; 6000 N  SQS !

$************************************************************************
 PHASE sigma % 5 2 4 8 8 8 !
 CONSTITUENT sigma :  CR,MO,NI,RE : CR,MO,NI,RE : CR,MO,NI,RE 
: CR,MO,NI,RE : CR,MO,NI,RE : !
$************************************************************************
 PARA G(sigma,CR:CR:CR:CR:CR;0)   298.15  367492.6;  6000 N ZenGen !
 PARA G(sigma,CR:CR:CR:CR:MO;0)   298.15  723134.88;  6000 N ZenGen !
 PARA G(sigma,CR:CR:CR:CR:RE;0)   298.15  328364.82;  6000 N ZenGen !
 PARA G(sigma,RE:MO:CR:MO:NI;0)   298.15  523926.31;  6000 N ZenGen !
 PARA G(sigma,RE:MO:NI:CR:MO;0)   298.15  374730.2;  6000 N ZenGen !
 PARA G(sigma,CR:MO:NI:RE:MO;0)   298.15  296323.94;  6000 N ZenGen !
 PARA G(sigma,RE:MO:CR:NI:MO;0)   298.15  181151.5;  6000 N ZenGen !
 PARA G(sigma,NI:MO:RE:CR:MO;0)   298.15  64867.92;  6000 N ZenGen !
 PARA G(sigma,NI:MO:CR:RE:MO;0)   298.15  163620.28;  6000 N ZenGen !
 PARA G(sigma,CR:MO:RE:NI:MO;0)   298.15  -60401.01;  6000 N ZenGen !
 PARA G(sigma,RE:NI:MO:MO:CR;0)   298.15  888526.64;  6000 N ZenGen !
 PARA G(sigma,CR:RE:MO:MO:NI;0)   298.15  389491.21;  6000 N ZenGen !
 PARA G(sigma,CR:NI:MO:MO:RE;0)   298.15  615200.33;  6000 N ZenGen !
 PARA G(sigma,RE:CR:RE:CR:CR;0)   298.15  164040.09;  6000 N ZenGen !
 PARA G(sigma,RE:CR:MO:MO:NI;0)   298.15  551208.21;  6000 N ZenGen !
 PARA G(sigma,NI:RE:MO:MO:CR;0)   298.15  564003.22;  6000 N ZenGen !
 PARA G(sigma,NI:CR:MO:MO:RE;0)   298.15  462048.1;  6000 N ZenGen !
 PARA G(sigma,NI:RE:MO:CR:MO;0)   298.15  170185.48;  6000 N ZenGen !
 PARA G(sigma,CR:RE:MO:NI:MO;0)   298.15  -14749.72;  6000 N ZenGen !
 PARA G(sigma,CR:NI:MO:RE:MO;0)   298.15  387597.58;  6000 N ZenGen !
 PARA G(sigma,NI:CR:MO:RE:MO;0)   298.15  231674.37;  6000 N ZenGen !
 PARA G(sigma,RE:CR:MO:NI:MO;0)   298.15  158786.62;  6000 N ZenGen !
 PARA G(sigma,RE:NI:MO:CR:MO;0)   298.15  568697.84;  6000 N ZenGen !
 PARA G(sigma,CR:RE:NI:MO:MO;0)   298.15  378655.54;  6000 N ZenGen !
 PARA G(sigma,RE:CR:CR:RE:CR;0)   298.15  449614.73;  6000 N ZenGen !
 PARA G(sigma,CR:NI:RE:MO:MO;0)   298.15  655828.75;  6000 N ZenGen !
 PARA G(sigma,RE:CR:NI:MO:MO;0)   298.15  630446.57;  6000 N ZenGen !
 PARA G(sigma,RE:NI:CR:MO:MO;0)   298.15  915910.43;  6000 N ZenGen !
 PARA G(sigma,NI:RE:CR:MO:MO;0)   298.15  519616.77;  6000 N ZenGen !
 PARA G(sigma,NI:CR:RE:MO:MO;0)   298.15  500590.98;  6000 N ZenGen !
 PARA G(sigma,RE:CR:CR:CR:RE;0)   298.15  398466.05;  6000 N ZenGen !
 PARA G(sigma,CR:RE:RE:CR:CR;0)   298.15  18037.48;  6000 N ZenGen !
 PARA G(sigma,CR:RE:CR:RE:CR;0)   298.15  193821.85;  6000 N ZenGen !
 PARA G(sigma,RE:RE:RE:CR:CR;0)   298.15  55580.37;  6000 N ZenGen !
 PARA G(sigma,CR:RE:CR:CR:RE;0)   298.15  153574.64;  6000 N ZenGen !
 PARA G(sigma,RE:RE:CR:RE:CR;0)   298.15  284076.3;  6000 N ZenGen !
 PARA G(sigma,CR:CR:RE:RE:CR;0)   298.15  224152.13;  6000 N ZenGen !
 PARA G(sigma,MO:CR:MO:CR:CR;0)   298.15  671636.92;  6000 N ZenGen !
 PARA G(sigma,RE:CR:RE:RE:CR;0)   298.15  292675.42;  6000 N ZenGen !
 PARA G(sigma,RE:RE:CR:CR:RE;0)   298.15  230921.87;  6000 N ZenGen !
 PARA G(sigma,CR:CR:RE:CR:RE;0)   298.15  86520.35;  6000 N ZenGen !
 PARA G(sigma,RE:CR:RE:CR:RE;0)   298.15  139350.19;  6000 N ZenGen !
 PARA G(sigma,CR:RE:RE:RE:CR;0)   298.15  100131.72;  6000 N ZenGen !
 PARA G(sigma,CR:CR:CR:RE:RE;0)   298.15  414414.9;  6000 N ZenGen !
 PARA G(sigma,RE:CR:CR:RE:RE;0)   298.15  497381.66;  6000 N ZenGen !
 PARA G(sigma,CR:RE:RE:CR:RE;0)   298.15  23735.27;  6000 N ZenGen !
 PARA G(sigma,RE:RE:RE:RE:CR;0)   298.15  181065.34;  6000 N ZenGen !
 PARA G(sigma,CR:RE:CR:RE:RE;0)   298.15  257497.78;  6000 N ZenGen !
 PARA G(sigma,MO:CR:CR:MO:CR;0)   298.15  1074766.82;  6000 N ZenGen !
 PARA G(sigma,RE:RE:RE:CR:RE;0)   298.15  86145.5;  6000 N ZenGen !
 PARA G(sigma,RE:RE:CR:RE:RE;0)   298.15  345849.63;  6000 N ZenGen !
 PARA G(sigma,CR:CR:RE:RE:RE;0)   298.15  223665.55;  6000 N ZenGen !
 PARA G(sigma,RE:CR:RE:RE:RE;0)   298.15  324617.11;  6000 N ZenGen !
 PARA G(sigma,CR:RE:RE:RE:RE;0)   298.15  173616.81;  6000 N ZenGen !
 PARA G(sigma,MO:RE:RE:RE:RE;0)   298.15  312659.58;  6000 N ZenGen !
 PARA G(sigma,RE:MO:RE:RE:RE;0)   298.15  159805.39;  6000 N ZenGen !
 PARA G(sigma,MO:MO:RE:RE:RE;0)   298.15  204973.77;  6000 N ZenGen !
 PARA G(sigma,RE:RE:MO:RE:RE;0)   298.15  160689.45;  6000 N ZenGen !
 PARA G(sigma,RE:RE:RE:MO:RE;0)   298.15  391808.13;  6000 N ZenGen !
 PARA G(sigma,MO:CR:CR:CR:MO;0)   298.15  837278.49;  6000 N ZenGen !
 PARA G(sigma,RE:RE:RE:RE:MO;0)   298.15  96501.18;  6000 N ZenGen !
 PARA G(sigma,MO:RE:MO:RE:RE;0)   298.15  197349.17;  6000 N ZenGen !
 PARA G(sigma,MO:RE:RE:MO:RE;0)   298.15  423691.77;  6000 N ZenGen !
 PARA G(sigma,MO:RE:RE:RE:MO;0)   298.15  157394.15;  6000 N ZenGen !
 PARA G(sigma,RE:MO:MO:RE:RE;0)   298.15  47850.93;  6000 N ZenGen !
 PARA G(sigma,RE:MO:RE:MO:RE;0)   298.15  308343.82;  6000 N ZenGen !
 PARA G(sigma,RE:MO:RE:RE:MO;0)   298.15  28908.63;  6000 N ZenGen !
 PARA G(sigma,MO:MO:MO:RE:RE;0)   298.15  106577.18;  6000 N ZenGen !
 PARA G(sigma,MO:MO:RE:MO:RE;0)   298.15  362787.93;  6000 N ZenGen !
 PARA G(sigma,MO:MO:RE:RE:MO;0)   298.15  112405.2;  6000 N ZenGen !
 PARA G(sigma,CR:MO:MO:CR:CR;0)   298.15  493649.1;  6000 N ZenGen !
 PARA G(sigma,RE:RE:MO:MO:RE;0)   298.15  371399.73;  6000 N ZenGen !
 PARA G(sigma,RE:RE:MO:RE:MO;0)   298.15  108920.59;  6000 N ZenGen !
 PARA G(sigma,RE:RE:RE:MO:MO;0)   298.15  317371.08;  6000 N ZenGen !
 PARA G(sigma,MO:RE:MO:MO:RE;0)   298.15  410025.41;  6000 N ZenGen !
 PARA G(sigma,MO:RE:MO:RE:MO;0)   298.15  171058.95;  6000 N ZenGen !
 PARA G(sigma,MO:RE:RE:MO:MO;0)   298.15  376096.45;  6000 N ZenGen !
 PARA G(sigma,RE:MO:MO:MO:RE;0)   298.15  304747.59;  6000 N ZenGen !
 PARA G(sigma,RE:MO:MO:RE:MO;0)   298.15  53689.56;  6000 N ZenGen !
 PARA G(sigma,RE:MO:RE:MO:MO;0)   298.15  299293.08;  6000 N ZenGen !
 PARA G(sigma,MO:MO:MO:MO:RE;0)   298.15  369918.11;  6000 N ZenGen !
 PARA G(sigma,CR:MO:CR:MO:CR;0)   298.15  806184.24;  6000 N ZenGen !
 PARA G(sigma,MO:MO:MO:RE:MO;0)   298.15  139290.92;  6000 N ZenGen !
 PARA G(sigma,MO:MO:RE:MO:MO;0)   298.15  384063.63;  6000 N ZenGen !
 PARA G(sigma,RE:RE:MO:MO:MO;0)   298.15  420707.86;  6000 N ZenGen !
 PARA G(sigma,MO:RE:MO:MO:MO;0)   298.15  480343.85;  6000 N ZenGen !
 PARA G(sigma,RE:MO:MO:MO:MO;0)   298.15  402763.1;  6000 N ZenGen !
 PARA G(sigma,NI:RE:RE:RE:RE;0)   298.15  160322.39;  6000 N ZenGen !
 PARA G(sigma,RE:NI:RE:RE:RE;0)   298.15  415815.97;  6000 N ZenGen !
 PARA G(sigma,NI:NI:RE:RE:RE;0)   298.15  348596.59;  6000 N ZenGen !
 PARA G(sigma,RE:RE:NI:RE:RE;0)   298.15  534887.03;  6000 N ZenGen !
 PARA G(sigma,RE:RE:RE:NI:RE;0)   298.15  55853.14;  6000 N ZenGen !
 PARA G(sigma,CR:MO:CR:CR:MO;0)   298.15  525046.71;  6000 N ZenGen !
 PARA G(sigma,RE:RE:RE:RE:NI;0)   298.15  205468.96;  6000 N ZenGen !
 PARA G(sigma,NI:RE:NI:RE:RE;0)   298.15  349299.29;  6000 N ZenGen !
 PARA G(sigma,NI:RE:RE:NI:RE;0)   298.15  16193.53;  6000 N ZenGen !
 PARA G(sigma,NI:RE:RE:RE:NI;0)   298.15  178919.01;  6000 N ZenGen !
 PARA G(sigma,RE:NI:NI:RE:RE;0)   298.15  721126.04;  6000 N ZenGen !
 PARA G(sigma,RE:NI:RE:NI:RE;0)   298.15  236285.92;  6000 N ZenGen !
 PARA G(sigma,RE:NI:RE:RE:NI;0)   298.15  365943.51;  6000 N ZenGen !
 PARA G(sigma,NI:NI:NI:RE:RE;0)   298.15  590428.52;  6000 N ZenGen !
 PARA G(sigma,NI:NI:RE:NI:RE;0)   298.15  184199.69;  6000 N ZenGen !
 PARA G(sigma,NI:NI:RE:RE:NI;0)   298.15  352365.52;  6000 N ZenGen !
 PARA G(sigma,MO:MO:MO:CR:CR;0)   298.15  604309.67;  6000 N ZenGen !
 PARA G(sigma,RE:RE:NI:NI:RE;0)   298.15  331075.98;  6000 N ZenGen !
 PARA G(sigma,RE:RE:NI:RE:NI;0)   298.15  330024.86;  6000 N ZenGen !
 PARA G(sigma,RE:RE:RE:NI:NI;0)   298.15  209156.85;  6000 N ZenGen !
 PARA G(sigma,NI:RE:NI:NI:RE;0)   298.15  318629.29;  6000 N ZenGen !
 PARA G(sigma,NI:RE:NI:RE:NI;0)   298.15  214122.21;  6000 N ZenGen !
 PARA G(sigma,NI:RE:RE:NI:NI;0)   298.15  159633.0;  6000 N ZenGen !
 PARA G(sigma,RE:NI:NI:NI:RE;0)   298.15  436288.47;  6000 N ZenGen !
 PARA G(sigma,RE:NI:NI:RE:NI;0)   298.15  420478.66;  6000 N ZenGen !
 PARA G(sigma,RE:NI:RE:NI:NI;0)   298.15  255755.44;  6000 N ZenGen !
 PARA G(sigma,NI:NI:NI:NI:RE;0)   298.15  361688.67;  6000 N ZenGen !
 PARA G(sigma,MO:MO:CR:MO:CR;0)   298.15  924334.53;  6000 N ZenGen !
 PARA G(sigma,NI:NI:NI:RE:NI;0)   298.15  353135.29;  6000 N ZenGen !
 PARA G(sigma,NI:NI:RE:NI:NI;0)   298.15  243532.4;  6000 N ZenGen !
 PARA G(sigma,RE:RE:NI:NI:NI;0)   298.15  217907.17;  6000 N ZenGen !
 PARA G(sigma,NI:RE:NI:NI:NI;0)   298.15  198703.65;  6000 N ZenGen !
 PARA G(sigma,RE:NI:NI:NI:NI;0)   298.15  300180.88;  6000 N ZenGen !
 PARA G(sigma,MO:NI:NI:NI:CR;0)   298.15  312688.93;  6000 N ZenGen !
 PARA G(sigma,MO:CR:CR:CR:NI;0)   298.15  517982.58;  6000 N ZenGen !
 PARA G(sigma,MO:NI:CR:CR:NI;0)   298.15  491283.65;  6000 N ZenGen !
 PARA G(sigma,MO:NI:NI:CR:CR;0)   298.15  474030.03;  6000 N ZenGen !
 PARA G(sigma,MO:CR:NI:CR:NI;0)   298.15  483647.56;  6000 N ZenGen !
 PARA G(sigma,MO:MO:CR:CR:MO;0)   298.15  637145.2;  6000 N ZenGen !
 PARA G(sigma,MO:NI:NI:CR:NI;0)   298.15  401419.68;  6000 N ZenGen !
 PARA G(sigma,MO:CR:CR:NI:NI;0)   298.15  410418.25;  6000 N ZenGen !
 PARA G(sigma,MO:NI:CR:NI:NI;0)   298.15  286368.04;  6000 N ZenGen !
 PARA G(sigma,MO:CR:NI:NI:NI;0)   298.15  337897.93;  6000 N ZenGen !
 PARA G(sigma,MO:CR:CR:NI:CR;0)   298.15  345207.51;  6000 N ZenGen !
 PARA G(sigma,MO:NI:CR:NI:CR;0)   298.15  349755.67;  6000 N ZenGen !
 PARA G(sigma,MO:CR:NI:CR:CR;0)   298.15  514722.51;  6000 N ZenGen !
 PARA G(sigma,MO:CR:NI:NI:CR;0)   298.15  359972.19;  6000 N ZenGen !
 PARA G(sigma,MO:NI:CR:CR:CR;0)   298.15  608405.79;  6000 N ZenGen !
 PARA G(sigma,NI:MO:CR:CR:NI;0)   298.15  330492.05;  6000 N ZenGen !
 PARA G(sigma,MO:MO:MO:MO:MO;0)   298.15  482945.43;  6000 N ZenGen !
 PARA G(sigma,CR:CR:MO:MO:CR;0)   298.15  918451.68;  6000 N ZenGen !
 PARA G(sigma,CR:MO:CR:NI:NI;0)   298.15  251764.97;  6000 N ZenGen !
 PARA G(sigma,NI:MO:CR:NI:NI;0)   298.15  189995.31;  6000 N ZenGen !
 PARA G(sigma,NI:MO:CR:CR:CR;0)   298.15  261629.41;  6000 N ZenGen !
 PARA G(sigma,CR:MO:NI:CR:CR;0)   298.15  289074.95;  6000 N ZenGen !
 PARA G(sigma,CR:MO:NI:NI:NI;0)   298.15  132040.32;  6000 N ZenGen !
 PARA G(sigma,NI:MO:NI:NI:CR;0)   298.15  100327.2;  6000 N ZenGen !
 PARA G(sigma,CR:MO:CR:NI:CR;0)   298.15  138554.86;  6000 N ZenGen !
 PARA G(sigma,NI:MO:CR:NI:CR;0)   298.15  93965.98;  6000 N ZenGen !
 PARA G(sigma,NI:MO:NI:CR:CR;0)   298.15  277219.43;  6000 N ZenGen !
 PARA G(sigma,CR:MO:NI:CR:NI;0)   298.15  270960.38;  6000 N ZenGen !
 PARA G(sigma,CR:CR:MO:CR:MO;0)   298.15  578864.57;  6000 N ZenGen !
 PARA G(sigma,NI:MO:NI:CR:NI;0)   298.15  232376.59;  6000 N ZenGen !
 PARA G(sigma,CR:MO:CR:CR:NI;0)   298.15  365201.92;  6000 N ZenGen !
 PARA G(sigma,CR:MO:NI:NI:CR;0)   298.15  150507.64;  6000 N ZenGen !
 PARA G(sigma,MO:MO:CR:NI:NI;0)   298.15  314909.66;  6000 N ZenGen !
 PARA G(sigma,MO:MO:CR:CR:NI;0)   298.15  482363.33;  6000 N ZenGen !
 PARA G(sigma,MO:MO:NI:CR:NI;0)   298.15  407321.92;  6000 N ZenGen !
 PARA G(sigma,MO:MO:CR:NI:CR;0)   298.15  253900.79;  6000 N ZenGen !
 PARA G(sigma,MO:MO:NI:CR:CR;0)   298.15  447701.5;  6000 N ZenGen !
 PARA G(sigma,MO:MO:NI:NI:CR;0)   298.15  271647.26;  6000 N ZenGen !
 PARA G(sigma,NI:NI:MO:CR:NI;0)   298.15  376802.63;  6000 N ZenGen !
 PARA G(sigma,CR:CR:CR:MO:MO;0)   298.15  1028410.02;  6000 N ZenGen !
 PARA G(sigma,CR:CR:MO:CR:NI;0)   298.15  339019.96;  6000 N ZenGen !
 PARA G(sigma,CR:CR:MO:NI:NI;0)   298.15  222712.07;  6000 N ZenGen !
 PARA G(sigma,NI:CR:MO:NI:NI;0)   298.15  205323.27;  6000 N ZenGen !
 PARA G(sigma,CR:NI:MO:NI:NI;0)   298.15  124187.61;  6000 N ZenGen !
 PARA G(sigma,NI:CR:MO:CR:NI;0)   298.15  377883.56;  6000 N ZenGen !
 PARA G(sigma,CR:NI:MO:CR:CR;0)   298.15  593553.12;  6000 N ZenGen !
 PARA G(sigma,CR:NI:MO:CR:NI;0)   298.15  394383.53;  6000 N ZenGen !
 PARA G(sigma,NI:NI:MO:CR:CR;0)   298.15  507129.55;  6000 N ZenGen !
 PARA G(sigma,NI:CR:MO:CR:CR;0)   298.15  428082.81;  6000 N ZenGen !
 PARA G(sigma,CR:CR:MO:NI:CR;0)   298.15  225572.4;  6000 N ZenGen !
 PARA G(sigma,MO:CR:MO:MO:CR;0)   298.15  1010744.79;  6000 N ZenGen !
 PARA G(sigma,NI:CR:MO:NI:CR;0)   298.15  228567.23;  6000 N ZenGen !
 PARA G(sigma,CR:NI:MO:NI:CR;0)   298.15  269602.34;  6000 N ZenGen !
 PARA G(sigma,NI:NI:MO:NI:CR;0)   298.15  301158.57;  6000 N ZenGen !
 PARA G(sigma,NI:NI:CR:MO:CR;0)   298.15  806666.76;  6000 N ZenGen !
 PARA G(sigma,CR:CR:CR:MO:NI;0)   298.15  636122.84;  6000 N ZenGen !
 PARA G(sigma,NI:CR:CR:MO:NI;0)   298.15  565812.91;  6000 N ZenGen !
 PARA G(sigma,CR:NI:CR:MO:NI;0)   298.15  692321.88;  6000 N ZenGen !
 PARA G(sigma,NI:CR:CR:MO:CR;0)   298.15  787392.72;  6000 N ZenGen !
 PARA G(sigma,NI:NI:CR:MO:NI;0)   298.15  560120.91;  6000 N ZenGen !
 PARA G(sigma,CR:CR:NI:MO:CR;0)   298.15  552771.48;  6000 N ZenGen !
 PARA G(sigma,MO:CR:MO:CR:MO;0)   298.15  656264.1;  6000 N ZenGen !
 PARA G(sigma,NI:CR:NI:MO:CR;0)   298.15  516413.24;  6000 N ZenGen !
 PARA G(sigma,CR:NI:NI:MO:CR;0)   298.15  538356.95;  6000 N ZenGen !
 PARA G(sigma,NI:NI:NI:MO:CR;0)   298.15  494347.37;  6000 N ZenGen !
 PARA G(sigma,CR:NI:CR:MO:CR;0)   298.15  936937.63;  6000 N ZenGen !
 PARA G(sigma,CR:CR:NI:MO:NI;0)   298.15  327858.08;  6000 N ZenGen !
 PARA G(sigma,NI:CR:NI:MO:NI;0)   298.15  302065.73;  6000 N ZenGen !
 PARA G(sigma,CR:NI:NI:MO:NI;0)   298.15  317997.11;  6000 N ZenGen !
 PARA G(sigma,CR:CR:CR:NI:MO;0)   298.15  397827.41;  6000 N ZenGen !
 PARA G(sigma,NI:CR:CR:NI:MO;0)   298.15  357770.09;  6000 N ZenGen !
 PARA G(sigma,CR:NI:CR:NI:MO;0)   298.15  400693.33;  6000 N ZenGen !
 PARA G(sigma,MO:CR:CR:MO:MO;0)   298.15  1109222.45;  6000 N ZenGen !
 PARA G(sigma,NI:NI:CR:NI:MO;0)   298.15  386218.6;  6000 N ZenGen !
 PARA G(sigma,CR:NI:NI:CR:MO;0)   298.15  494647.73;  6000 N ZenGen !
 PARA G(sigma,NI:NI:NI:CR:MO;0)   298.15  461400.68;  6000 N ZenGen !
 PARA G(sigma,CR:NI:CR:CR:MO;0)   298.15  679329.56;  6000 N ZenGen !
 PARA G(sigma,CR:CR:NI:NI:MO;0)   298.15  280335.35;  6000 N ZenGen !
 PARA G(sigma,NI:CR:NI:NI:MO;0)   298.15  235738.84;  6000 N ZenGen !
 PARA G(sigma,NI:CR:NI:CR:MO;0)   298.15  519938.84;  6000 N ZenGen !
 PARA G(sigma,CR:CR:NI:CR:MO;0)   298.15  510764.56;  6000 N ZenGen !
 PARA G(sigma,CR:NI:NI:NI:MO;0)   298.15  230254.0;  6000 N ZenGen !
 PARA G(sigma,NI:NI:CR:CR:MO;0)   298.15  598509.22;  6000 N ZenGen !
 PARA G(sigma,CR:MO:MO:MO:CR;0)   298.15  755425.56;  6000 N ZenGen !
 PARA G(sigma,NI:CR:CR:CR:MO;0)   298.15  550068.81;  6000 N ZenGen !
 PARA G(sigma,MO:NI:MO:CR:CR;0)   298.15  640105.3;  6000 N ZenGen !
 PARA G(sigma,MO:NI:MO:NI:CR;0)   298.15  293512.53;  6000 N ZenGen !
 PARA G(sigma,MO:CR:MO:CR:NI;0)   298.15  442902.19;  6000 N ZenGen !
 PARA G(sigma,MO:NI:MO:CR:NI;0)   298.15  435744.57;  6000 N ZenGen !
 PARA G(sigma,MO:CR:MO:NI:NI;0)   298.15  263675.4;  6000 N ZenGen !
 PARA G(sigma,MO:CR:MO:NI:CR;0)   298.15  284086.82;  6000 N ZenGen !
 PARA G(sigma,MO:NI:NI:MO:CR;0)   298.15  631911.03;  6000 N ZenGen !
 PARA G(sigma,MO:NI:CR:MO:NI;0)   298.15  718058.27;  6000 N ZenGen !
 PARA G(sigma,MO:CR:NI:MO:CR;0)   298.15  697965.06;  6000 N ZenGen !
 PARA G(sigma,CR:MO:MO:CR:MO;0)   298.15  378744.5;  6000 N ZenGen !
 PARA G(sigma,MO:NI:CR:MO:CR;0)   298.15  1001046.5;  6000 N ZenGen !
 PARA G(sigma,MO:CR:NI:MO:NI;0)   298.15  482454.41;  6000 N ZenGen !
 PARA G(sigma,MO:CR:CR:MO:NI;0)   298.15  706674.56;  6000 N ZenGen !
 PARA G(sigma,MO:CR:CR:NI:MO;0)   298.15  476040.02;  6000 N ZenGen !
 PARA G(sigma,MO:NI:NI:CR:MO;0)   298.15  580694.43;  6000 N ZenGen !
 PARA G(sigma,MO:NI:CR:NI:MO;0)   298.15  439094.08;  6000 N ZenGen !
 PARA G(sigma,MO:CR:NI:CR:MO;0)   298.15  628011.26;  6000 N ZenGen !
 PARA G(sigma,MO:NI:CR:CR:MO;0)   298.15  736710.75;  6000 N ZenGen !
 PARA G(sigma,MO:CR:NI:NI:MO;0)   298.15  363313.79;  6000 N ZenGen !
 PARA G(sigma,NI:MO:MO:CR:CR;0)   298.15  346262.78;  6000 N ZenGen !
 PARA G(sigma,CR:MO:CR:MO:MO;0)   298.15  753705.21;  6000 N ZenGen !
 PARA G(sigma,CR:MO:MO:NI:NI;0)   298.15  185993.84;  6000 N ZenGen !
 PARA G(sigma,NI:MO:MO:CR:NI;0)   298.15  353690.85;  6000 N ZenGen !
 PARA G(sigma,CR:MO:MO:NI:CR;0)   298.15  150060.33;  6000 N ZenGen !
 PARA G(sigma,NI:MO:MO:NI:CR;0)   298.15  131020.37;  6000 N ZenGen !
 PARA G(sigma,CR:MO:MO:CR:NI;0)   298.15  352864.93;  6000 N ZenGen !
 PARA G(sigma,CR:MO:CR:MO:NI;0)   298.15  544957.08;  6000 N ZenGen !
 PARA G(sigma,NI:MO:CR:MO:CR;0)   298.15  608310.94;  6000 N ZenGen !
 PARA G(sigma,NI:MO:CR:MO:NI;0)   298.15  467051.58;  6000 N ZenGen !
 PARA G(sigma,CR:MO:NI:MO:CR;0)   298.15  408145.04;  6000 N ZenGen !
 PARA G(sigma,CR:MO:NI:MO:NI;0)   298.15  227569.56;  6000 N ZenGen !
 PARA G(sigma,MO:MO:MO:MO:CR;0)   298.15  838424.46;  6000 N ZenGen !
 PARA G(sigma,NI:MO:NI:MO:CR;0)   298.15  374929.74;  6000 N ZenGen !
 PARA G(sigma,CR:MO:NI:NI:MO;0)   298.15  147960.61;  6000 N ZenGen !
 PARA G(sigma,CR:MO:CR:NI:MO;0)   298.15  206070.55;  6000 N ZenGen !
 PARA G(sigma,NI:MO:CR:NI:MO;0)   298.15  144011.05;  6000 N ZenGen !
 PARA G(sigma,NI:MO:CR:CR:MO;0)   298.15  341964.81;  6000 N ZenGen !
 PARA G(sigma,NI:MO:NI:CR:MO;0)   298.15  351234.71;  6000 N ZenGen !
 PARA G(sigma,CR:MO:NI:CR:MO;0)   298.15  363084.73;  6000 N ZenGen !
 PARA G(sigma,MO:MO:MO:CR:NI;0)   298.15  442432.21;  6000 N ZenGen !
 PARA G(sigma,MO:MO:MO:NI:CR;0)   298.15  205931.9;  6000 N ZenGen !
 PARA G(sigma,MO:MO:CR:MO:NI;0)   298.15  601780.48;  6000 N ZenGen !
 PARA G(sigma,NI:NI:NI:NI:NI;0)   298.15  407459.61;  6000 N ZenGen !
 PARA G(sigma,MO:MO:MO:CR:MO;0)   298.15  452922.46;  6000 N ZenGen !
 PARA G(sigma,MO:MO:NI:MO:CR;0)   298.15  526176.56;  6000 N ZenGen !
 PARA G(sigma,MO:MO:NI:CR:MO;0)   298.15  467103.3;  6000 N ZenGen !
 PARA G(sigma,MO:MO:CR:NI:MO;0)   298.15  276429.11;  6000 N ZenGen !
 PARA G(sigma,NI:CR:MO:MO:NI;0)   298.15  550143.1;  6000 N ZenGen !
 PARA G(sigma,CR:NI:MO:MO:CR;0)   298.15  907514.61;  6000 N ZenGen !
 PARA G(sigma,NI:NI:MO:MO:CR;0)   298.15  791741.35;  6000 N ZenGen !
 PARA G(sigma,NI:CR:MO:MO:CR;0)   298.15  781232.67;  6000 N ZenGen !
 PARA G(sigma,CR:NI:MO:MO:NI;0)   298.15  625723.77;  6000 N ZenGen !
 PARA G(sigma,CR:CR:MO:MO:NI;0)   298.15  554159.33;  6000 N ZenGen !
 PARA G(sigma,CR:CR:MO:NI:MO;0)   298.15  200027.44;  6000 N ZenGen !
 PARA G(sigma,MO:MO:CR:MO:MO;0)   298.15  832762.37;  6000 N ZenGen !
 PARA G(sigma,NI:CR:MO:CR:MO;0)   298.15  419858.15;  6000 N ZenGen !
 PARA G(sigma,CR:NI:MO:CR:MO;0)   298.15  607311.73;  6000 N ZenGen !
 PARA G(sigma,NI:NI:MO:CR:MO;0)   298.15  502158.88;  6000 N ZenGen !
 PARA G(sigma,CR:NI:MO:NI:MO;0)   298.15  241240.47;  6000 N ZenGen !
 PARA G(sigma,NI:CR:MO:NI:MO;0)   298.15  172534.34;  6000 N ZenGen !
 PARA G(sigma,NI:CR:CR:MO:MO;0)   298.15  829853.12;  6000 N ZenGen !
 PARA G(sigma,NI:NI:CR:MO:MO;0)   298.15  813744.5;  6000 N ZenGen !
 PARA G(sigma,CR:NI:NI:MO:MO;0)   298.15  596987.35;  6000 N ZenGen !
 PARA G(sigma,CR:CR:NI:MO:MO;0)   298.15  615938.45;  6000 N ZenGen !
 PARA G(sigma,NI:CR:NI:MO:MO;0)   298.15  577084.99;  6000 N ZenGen !
 PARA G(sigma,CR:CR:MO:MO:MO;0)   298.15  813196.84;  6000 N ZenGen !
 PARA G(sigma,CR:NI:CR:MO:MO;0)   298.15  936049.47;  6000 N ZenGen !
 PARA G(sigma,MO:CR:MO:MO:NI;0)   298.15  612612.0;  6000 N ZenGen !
 PARA G(sigma,MO:NI:MO:MO:CR;0)   298.15  959891.55;  6000 N ZenGen !
 PARA G(sigma,MO:NI:MO:CR:MO;0)   298.15  631648.98;  6000 N ZenGen !
 PARA G(sigma,MO:CR:MO:NI:MO;0)   298.15  229953.35;  6000 N ZenGen !
 PARA G(sigma,MO:NI:CR:MO:MO;0)   298.15  975911.02;  6000 N ZenGen !
 PARA G(sigma,MO:CR:NI:MO:MO;0)   298.15  704040.69;  6000 N ZenGen !
 PARA G(sigma,CR:MO:MO:MO:NI;0)   298.15  489342.64;  6000 N ZenGen !
 PARA G(sigma,NI:MO:MO:MO:CR;0)   298.15  602205.31;  6000 N ZenGen !
 PARA G(sigma,NI:MO:MO:CR:MO;0)   298.15  218737.52;  6000 N ZenGen !
 PARA G(sigma,MO:CR:MO:MO:MO;0)   298.15  864381.99;  6000 N ZenGen !
 PARA G(sigma,CR:MO:MO:NI:MO;0)   298.15  19444.15;  6000 N ZenGen !
 PARA G(sigma,NI:MO:CR:MO:MO;0)   298.15  554522.89;  6000 N ZenGen !
 PARA G(sigma,CR:MO:NI:MO:MO;0)   298.15  386580.23;  6000 N ZenGen !
 PARA G(sigma,NI:CR:MO:MO:MO;0)   298.15  642024.98;  6000 N ZenGen !
 PARA G(sigma,CR:NI:MO:MO:MO;0)   298.15  786532.84;  6000 N ZenGen !
 PARA G(sigma,MO:CR:CR:RE:CR;0)   298.15  551667.88;  6000 N ZenGen !
 PARA G(sigma,MO:CR:CR:CR:RE;0)   298.15  480469.75;  6000 N ZenGen !
 PARA G(sigma,MO:RE:CR:CR:RE;0)   298.15  305369.87;  6000 N ZenGen !
 PARA G(sigma,MO:CR:RE:CR:RE;0)   298.15  216637.32;  6000 N ZenGen !
 PARA G(sigma,MO:RE:RE:CR:RE;0)   298.15  145571.26;  6000 N ZenGen !
 PARA G(sigma,CR:MO:MO:MO:MO;0)   298.15  540735.62;  6000 N ZenGen !
 PARA G(sigma,MO:RE:CR:RE:CR;0)   298.15  365541.46;  6000 N ZenGen !
 PARA G(sigma,MO:RE:RE:CR:CR;0)   298.15  161871.88;  6000 N ZenGen !
 PARA G(sigma,MO:CR:CR:RE:RE;0)   298.15  553165.93;  6000 N ZenGen !
 PARA G(sigma,MO:CR:RE:RE:CR;0)   298.15  382784.8;  6000 N ZenGen !
 PARA G(sigma,MO:RE:CR:RE:RE;0)   298.15  391421.32;  6000 N ZenGen !
 PARA G(sigma,MO:RE:RE:RE:CR;0)   298.15  251418.44;  6000 N ZenGen !
 PARA G(sigma,MO:CR:RE:RE:RE;0)   298.15  373972.89;  6000 N ZenGen !
 PARA G(sigma,MO:RE:CR:CR:CR;0)   298.15  358223.92;  6000 N ZenGen !
 PARA G(sigma,MO:CR:RE:CR:CR;0)   298.15  280548.33;  6000 N ZenGen !
 PARA G(sigma,RE:MO:CR:CR:RE;0)   298.15  218650.44;  6000 N ZenGen !
 PARA G(sigma,NI:CR:CR:CR:CR;0)   298.15  346286.42;  6000 N ZenGen !
 PARA G(sigma,CR:MO:RE:CR:CR;0)   298.15  132657.61;  6000 N ZenGen !
 PARA G(sigma,CR:MO:CR:RE:CR;0)   298.15  243190.92;  6000 N ZenGen !
 PARA G(sigma,CR:MO:CR:RE:RE;0)   298.15  190262.41;  6000 N ZenGen !
 PARA G(sigma,RE:MO:CR:RE:RE;0)   298.15  257092.17;  6000 N ZenGen !
 PARA G(sigma,RE:MO:CR:RE:CR;0)   298.15  301944.61;  6000 N ZenGen !
 PARA G(sigma,CR:MO:RE:RE:CR;0)   298.15  121894.3;  6000 N ZenGen !
 PARA G(sigma,RE:MO:RE:RE:CR;0)   298.15  160379.53;  6000 N ZenGen !
 PARA G(sigma,CR:MO:RE:CR:RE;0)   298.15  10661.45;  6000 N ZenGen !
 PARA G(sigma,RE:MO:CR:CR:CR;0)   298.15  350286.65;  6000 N ZenGen !
 PARA G(sigma,RE:MO:RE:CR:RE;0)   298.15  33724.05;  6000 N ZenGen !
 PARA G(sigma,CR:NI:CR:CR:CR;0)   298.15  523614.26;  6000 N ZenGen !
 PARA G(sigma,CR:MO:RE:RE:RE;0)   298.15  88622.29;  6000 N ZenGen !
 PARA G(sigma,RE:MO:RE:CR:CR;0)   298.15  136110.72;  6000 N ZenGen !
 PARA G(sigma,CR:MO:CR:CR:RE;0)   298.15  166650.38;  6000 N ZenGen !
 PARA G(sigma,MO:MO:CR:RE:RE;0)   298.15  324918.42;  6000 N ZenGen !
 PARA G(sigma,MO:MO:RE:CR:RE;0)   298.15  120539.89;  6000 N ZenGen !
 PARA G(sigma,MO:MO:RE:CR:CR;0)   298.15  261357.35;  6000 N ZenGen !
 PARA G(sigma,MO:MO:CR:CR:RE;0)   298.15  313116.1;  6000 N ZenGen !
 PARA G(sigma,MO:MO:RE:RE:CR;0)   298.15  252920.63;  6000 N ZenGen !
 PARA G(sigma,MO:MO:CR:RE:CR;0)   298.15  406121.66;  6000 N ZenGen !
 PARA G(sigma,CR:CR:MO:RE:CR;0)   298.15  360026.87;  6000 N ZenGen !
 PARA G(sigma,NI:NI:CR:CR:CR;0)   298.15  450578.37;  6000 N ZenGen !
 PARA G(sigma,RE:CR:MO:RE:CR;0)   298.15  403658.21;  6000 N ZenGen !
 PARA G(sigma,CR:RE:MO:RE:CR;0)   298.15  189941.2;  6000 N ZenGen !
 PARA G(sigma,RE:RE:MO:RE:CR;0)   298.15  254805.28;  6000 N ZenGen !
 PARA G(sigma,RE:CR:MO:CR:CR;0)   298.15  428744.54;  6000 N ZenGen !
 PARA G(sigma,CR:CR:MO:RE:RE;0)   298.15  171012.4;  6000 N ZenGen !
 PARA G(sigma,RE:CR:MO:RE:RE;0)   298.15  250867.43;  6000 N ZenGen !
 PARA G(sigma,CR:RE:MO:RE:RE;0)   298.15  81660.1;  6000 N ZenGen !
 PARA G(sigma,CR:RE:MO:CR:CR;0)   298.15  256414.95;  6000 N ZenGen !
 PARA G(sigma,RE:RE:MO:CR:CR;0)   298.15  279865.09;  6000 N ZenGen !
 PARA G(sigma,CR:CR:MO:CR:RE;0)   298.15  188215.57;  6000 N ZenGen !
 PARA G(sigma,CR:CR:NI:CR:CR;0)   298.15  331832.49;  6000 N ZenGen !
 PARA G(sigma,RE:CR:MO:CR:RE;0)   298.15  219006.86;  6000 N ZenGen !
 PARA G(sigma,CR:RE:MO:CR:RE;0)   298.15  56215.69;  6000 N ZenGen !
 PARA G(sigma,RE:RE:MO:CR:RE;0)   298.15  99822.46;  6000 N ZenGen !
 PARA G(sigma,CR:RE:CR:MO:RE;0)   298.15  499914.13;  6000 N ZenGen !
 PARA G(sigma,CR:RE:CR:MO:CR;0)   298.15  591677.74;  6000 N ZenGen !
 PARA G(sigma,RE:RE:CR:MO:RE;0)   298.15  558875.79;  6000 N ZenGen !
 PARA G(sigma,RE:RE:RE:MO:CR;0)   298.15  449316.45;  6000 N ZenGen !
 PARA G(sigma,RE:RE:CR:MO:CR;0)   298.15  638077.27;  6000 N ZenGen !
 PARA G(sigma,RE:CR:RE:MO:CR;0)   298.15  638449.84;  6000 N ZenGen !
 PARA G(sigma,CR:CR:RE:MO:RE;0)   298.15  465647.01;  6000 N ZenGen !
 PARA G(sigma,CR:CR:CR:NI:CR;0)   298.15  225059.88;  6000 N ZenGen !
 PARA G(sigma,CR:CR:RE:MO:CR;0)   298.15  616599.51;  6000 N ZenGen !
 PARA G(sigma,RE:CR:RE:MO:RE;0)   298.15  516972.8;  6000 N ZenGen !