$            ********************************************************
$                 ------------    C-Cr-Nb TDB   ---------------
$            ********************************************************
$       
$*****************************************************************************
$                            ------------------------
$                            (I) Element description
$                            ------------------------                         
 ELEMENT /-   ELECTRON_GAS              0.0000E+00  0.0000E+00  0.0000E+00!
 ELEMENT VA   VACUUM                    0.0000E+00  0.0000E+00  0.0000E+00!
 ELEMENT C    GRAPHITE                  1.2011E+01  1.0540E+03  5.7400E+00!
 ELEMENT CR   BCC_A2                    5.1996E+01  4.0500E+03  2.3560E+01!
 ELEMENT NB   BCC_A2                    9.2906E+01  5.2200E+03  3.6270E+01!
$*****************************************************************************
$                            ------------------------
$                            (II) Type description
$                            ------------------------
 TYPE_DEFINITION % SEQ *!
 DEFINE_SYSTEM_DEFAULT ELEMENT 2 !
 DEFAULT_COMMAND DEF_SYS_ELEMENT VA /- !
 TYPE_DEFINITION ( GES A_P_D FCC_A1 MAGNETIC  -3.0    2.80000E-01 !
 TYPE_DEFINITION & GES A_P_D BCC_A2 MAGNETIC  -1.0    4.00000E-01 !
 TYPE_DEFINITION ) GES A_P_D HCP_A3 MAGNETIC  -3.0    2.80000E-01 !
$
$*****************************************************************************
$                              -------------------
$                               (III) Unary data
$                              -------------------
$
 FUNCTION GHSERCC    2.98150E+02  -17368.441+170.73*T-24.3*T*LN(T)
     -4.723E-04*T**2+2562600*T**(-1)-2.643E+08*T**(-2)+1.2E+10*T**(-3);   
     6.00000E+03   N !
 FUNCTION GCRLIQ     2.98140E+02  +15483.015+146.059775*T-26.908*T*LN(T)
     +.00189435*T**2-1.47721E-06*T**3+139250*T**(-1)+2.37615E-21*T**7;  
     2.18000E+03  Y
      -16459.984+335.616316*T-50*T*LN(T);  6.00000E+03  N !
 FUNCTION GHSERNB    2.98140E+02  -8519.353+142.045475*T-26.4711*T*LN(T)
     +2.03475E-04*T**2-3.5012E-07*T**3+93399*T**(-1);  2.75000E+03  Y
      -37669.3+271.720843*T-41.77*T*LN(T)+1.528238E+32*T**(-9);  6.00000E+03 
      N !
 FUNCTION GHSERCR    2.98140E+02  -8856.94+157.48*T-26.908*T*LN(T)
     +.00189435*T**2-1.47721E-06*T**3+139250*T**(-1);  2.18000E+03  Y
      -34869.344+344.18*T-50*T*LN(T)-2.88526E+32*T**(-9);  6.00000E+03  N !
 FUNCTION GCRFCC     2.98150E+02  +7284+.163*T+GHSERCR#;   6.00000E+03   N !
 FUNCTION GFNBC      2.98150E+02  -153054+563374*T**(-1)+283.912*T
     -46.34274*T*LN(T)-.0029287*T**2-1.02788144E+09*T**(-3);   6.00000E+03   
     N !
 FUNCTION GHEXTNB    2.98150E+02  -8519.35+142.048*T-26.4711*T*LN(T)
     +2.03475E-04*T**2-3.50119E-07*T**3+93398.8*T**(-1);   6.00000E+03   N !
 FUNCTION GCRHCP     2.98150E+02  +4438+GHSERCR#;   6.00000E+03   N !
 FUNCTION YCDIA      2.98150E+02  +VCDIA#*EXP(-ECDIA#);   6.00000E+03   N !
 FUNCTION ZCDIA      2.98150E+02  +1*LN(XCDIA#);   6.00000E+03   N !
 FUNCTION GPCDIA     2.98150E+02  +YCDIA#*EXP(ZCDIA#);   6.00000E+03   N !
 FUNCTION GCRM23C6   2.98150E+02  -521983+3622.24*T-620.965*T*LN(T)
     -.126431*T**2;   6.00000E+03   N !
 FUNCTION VCDIA      2.98150E+02  +3.412E-06*EXP(ACDIA#);   6.00000E+03   N !
 FUNCTION ECDIA      2.98150E+02  +1*LN(CCDIA#);   6.00000E+03   N !
 FUNCTION XCDIA      2.98150E+02  +1*EXP(.8*DCDIA#)-1;   6.00000E+03   N !
 FUNCTION ACDIA      2.98150E+02  +2.43E-06*T+5E-09*T**2;   6.00000E+03   N !
 FUNCTION CCDIA      2.98150E+02  6.8E-12;   6.00000E+03   N !
 FUNCTION DCDIA      2.98150E+02  +1*LN(BCDIA#);   6.00000E+03   N !
 FUNCTION BCDIA      2.98150E+02  +1+8.5E-12*P;   6.00000E+03   N !
 FUNCTION UN_ASS     2.98140E+02  0.0 ;  3.00000E+02  N !
 


$********************************************
 PHASE LIQUID  %  1  1.0  !
 CONST LIQUID  :C,CR,NB :  !
   PARAMETER G(LIQUID,C;0)  2.98150E+02  +117369-24.63*T+GHSERCC#;   
  6.00000E+03   N REF0 !
   PARAMETER G(LIQUID,CR;0)  2.98150E+02  +GCRLIQ#;   6.00000E+03   N REF0 !
   PARAMETER G(LIQUID,NB;0)  2.98140E+02  +29781.555-10.816418*T
  -3.06098E-23*T**7+GHSERNB#;  2.75000E+03  Y
   +30169.902-10.964695*T-1.528238E+32*T**(-9)+GHSERNB#;  6.00000E+03  N 
  REF0 !
   PARAMETER G(LIQUID,C,CR;0)  2.98150E+02  -90526-25.9116*T;   6.00000E+03  
   N REF0 !
   PARAMETER G(LIQUID,C,CR;1)  2.98150E+02  80000;   6.00000E+03   N REF0 !
   PARAMETER G(LIQUID,C,CR;2)  2.98150E+02  80000;   6.00000E+03   N REF0 !

   PARAMETER G(LIQUID,C,NB;0)  2.98150E+02  -317748+38.851*T;   6.00000E+03  
   N REF0 !
   PARAMETER G(LIQUID,C,NB;1)  2.98150E+02  13125;   6.00000E+03   N REF0 !
   PARAMETER G(LIQUID,C,NB;2)  2.98150E+02  55982;   6.00000E+03   N REF0 !

$$$$
 PARAMETER G(LIQUID,CR,NB;0)  2.98150E+02  84937.28-49.37937*T;  6000  N  !
 PARAMETER G(LIQUID,CR,NB;1)  2.98150E+02  57511.0-32.4913*T;    6000  N  !

 PARAMETER G(LIQUID,C,CR,NB;0)  2.98140E+02  -1038217.02;        6000  N  !
 PARAMETER G(LIQUID,C,CR,NB;1)  2.98140E+02  155717.24;          6000  N  !
 PARAMETER G(LIQUID,C,CR,NB;2)  2.98140E+02  148534.58;          6000  N  !

$*****************************************************



 PHASE FCC_A1  %(  2 1   1 !
    CONSTITUENT FCC_A1  :CR,NB : C,VA :  !

   PARAMETER G(FCC_A1,CR:C;0)  2.98150E+02  +1200-1.94*T+GHSERCC#+GHSERCR#;  
   6.00000E+03   N REF0 !
   PARAMETER G(FCC_A1,NB:C;0)  2.98150E+02  +GFNBC#;   6.00000E+03   N REF0 !
   PARAMETER G(FCC_A1,CR:VA;0)  2.98150E+02  +GCRFCC#;   6.00000E+03   N 
  REF0 !
   PARAMETER TC(FCC_A1,CR:VA;0)  2.98150E+02  -1109;   6.00000E+03   N REF0 !
   PARAMETER BMAGN(FCC_A1,CR:VA;0)  2.98150E+02  -2.46;   6.00000E+03   N 
  REF0 !
   PARAMETER G(FCC_A1,NB:VA;0)  2.98150E+02  +13500+1.7*T+GHEXTNB#;   
  6.00000E+03   N REF0 !
   PARAMETER G(FCC_A1,CR:C,VA;0)  2.98150E+02  -11977+6.8194*T;   
  6.00000E+03   N REF0 !
   PARAMETER G(FCC_A1,NB:C,VA;0)  2.98150E+02  -95006+18.92*T;   6.00000E+03 
    N REF0 !
   PARAMETER G(FCC_A1,NB:C,VA;2)  2.98150E+02  -61342+25.207*T;   
  6.00000E+03   N REF0 !
$$$$$$$$$

 PARAMETER G(FCC_A1,CR,NB:C;0)     2.98150E+02  270963.97;         6000  N  !
 PARAMETER G(FCC_A1,CR,NB:C;1)     2.98150E+02  0;                 6000  N  !
 PARAMETER G(FCC_A1,CR,NB:C;2)     2.98150E+02  -817428.37;        6000  N  !
 PARAMETER G(FCC_A1,CR,NB:C,VA;0)  2.98150E+02  920367.48;         6000  N  !
 PARAMETER G(FCC_A1,CR,NB:C,VA;1)  2.98150E+02  -1047374.86;       6000  N  !



$*****************************************************



 PHASE BCC_A2  %&  2 1   3 !
 CONSTITUENT BCC_A2  :CR,NB : C,VA :  !
   PARAMETER TC(BCC_A2,CR:C;0)  2.98150E+02  -311.5;   6.00000E+03   N REF0 !
   PARAMETER BMAGN(BCC_A2,CR:C;0)  2.98150E+02  -.008;   6.00000E+03   N 
  REF0 !
   PARAMETER G(BCC_A2,CR:C;0)  2.98150E+02  +416000+3*GHSERCC#+GHSERCR#;   
  6.00000E+03   N REF0 !
   PARAMETER G(BCC_A2,NB:C;0)  2.98150E+02  +520879-70.807*T+GHSERNB#
  +3*GHSERCC#;   6.00000E+03   N REF0 !
   PARAMETER G(BCC_A2,CR:VA;0)  2.98140E+02  +GHSERCR#;  2.00000E+03  N REF0 !
   PARAMETER G(BCC_A2,NB:VA;0)  2.98150E+02  +GHSERNB#;   6.00000E+03   N 
  REF0 !
   PARAMETER G(BCC_A2,CR:C,VA;0)  2.98150E+02  -190*T;   6.00000E+03   N 
  REF0 !
   PARAMETER G(BCC_A2,NB:C,VA;0)  2.98150E+02  -650000+24.5*T;   6.00000E+03 
    N REF0 !
$$$$$

 PARAMETER G(BCC_A2,CR,NB:VA;0)  2.98150E+02  62044.08-23.1246*T;   6000  N !
 PARAMETER G(BCC_A2,CR,NB:VA;1)  2.98150E+02  38777.36-19.31*T;    6000  N !



$*****************************************************


 PHASE HCP_A3  %)  2 1   .5 !
 CONST HCP_A3  :CR,NB : C,VA :  !
   PARAMETER G(HCP_A3,CR:C;0)  2.98150E+02  +GHSERCR#+.5*GHSERCC#-18504
  +9.4173*T-2.4997*T*LN(T)+.001386*T**2;   6.00000E+03   N REF0 !
   PARAMETER G(HCP_A3,NB:C;0)  2.98150E+02  -103729+252376*T**(-1)+206.204*T
  -34.987*T*LN(T)-.002897*T**2-58298590*T**(-3);   6.00000E+03   N REF0 !
   PARAMETER G(HCP_A3,CR:VA;0)  2.98150E+02  +GCRHCP#;   6.00000E+03   N 
  REF0 !
   PARAMETER TC(HCP_A3,CR:VA;0)  2.98150E+02  -1109;   6.00000E+03   N REF0 !
   PARAMETER BMAGN(HCP_A3,CR:VA;0)  2.98150E+02  -2.46;   6.00000E+03   N 
  REF0 !
   PARAMETER G(HCP_A3,NB:VA;0)  2.98150E+02  +10000+2.4*T+GHEXTNB#;   
  6.00000E+03   N REF0 !
   PARAMETER G(HCP_A3,CR:C,VA;0)  2.98150E+02  4165;   6.00000E+03   N REF0 !
   PARAMETER G(HCP_A3,NB:C,VA;0)  2.98150E+02  +13544-4.66*T;   6.00000E+03  
   N REF0 !

$$$$$$$

 PARAMETER G(HCP_A3,CR,NB:C;0)  2.98150E+02  40000;            6000  N  !




 PHASE CR3C2  %  2 3   2 !
    CONSTITUENT CR3C2  :CR : C :  !

   PARAMETER G(CR3C2,CR:C;0)  2.98150E+02  -100823.8+530.66989*T
  -89.6694*T*LN(T)-.0301188*T**2;   6.00000E+03   N REF0 !



 PHASE GRAPHITE  %  1  1.0  !
    CONSTITUENT GRAPHITE  :C :  !

   PARAMETER G(GRAPHITE,C;0)  2.98150E+02  +GHSERCC#;   6.00000E+03   N REF0 !




 PHASE LAVES_C15  %  2 2   1 !
 CONSTITUENT LAVES_C15  :CR,NB% : CR%,NB :  !

   PARAMETER G(LAVES_C15,CR:CR;0)  2.98150E+02  +79200+3*GHSERCR#;   
  6.00000E+03   N REF0 !
   PARAMETER G(LAVES_C15,NB:NB;0)  2.98150E+02  +48600+2.9*T+3*GHSERNB#;   
  6.00000E+03   N REF0 !

   PARAMETER G(LAVES_C15,NB:CR;0)  2.98150E+02  +222090+2*GHSERNB#+GHSERCR#; 
    6.00000E+03   N REF0 !
   PARAMETER G(LAVES_C15,CR:NB;0)  2.98150E+02  -6976-10.46*T+2*GHSERCR#
  +GHSERNB#;   6.00000E+03   N REF0 !
   PARAMETER G(LAVES_C15,CR,NB:CR;0)  2.98150E+02  35896;   6.00000E+03   N 
  REF0 !
   PARAMETER G(LAVES_C15,CR:CR,NB;0)  2.98150E+02  -55035;   6.00000E+03   N 
  REF0 !
   PARAMETER G(LAVES_C15,CR,NB:NB;0)  2.98150E+02  35896;   6.00000E+03   N 
  REF0 !
   PARAMETER G(LAVES_C15,NB:CR,NB;0)  2.98150E+02  -55035;   6.00000E+03   N 
  REF0 !


 PHASE M23C6  %  3 20   3   6 !
    CONSTITUENT M23C6  :CR : CR : C :  !

   PARAMETER G(M23C6,CR:CR:C;0)  2.98150E+02  +GCRM23C6#;   6.00000E+03   N 
  REF0 !


 PHASE M7C3  %  2 7   3 !
    CONSTITUENT M7C3  :CR : C :  !

   PARAMETER G(M7C3,CR:C;0)  2.98150E+02  -201690+1103.128*T-190.177*T*LN(T)
  -.0578207*T**2;   6.00000E+03   N REF0 !

 LIST_OF_REFERENCES
 NUMBER  SOURCE
  ! 
 
