$                
 ELEMENT /-   ELECTRON_GAS              0.0000E+00  0.0000E+00  0.0000E+00 !
 ELEMENT VA   VACUUM                    0.0000E+00  0.0000E+00  0.0000E+00 !
 ELEMENT MO   BCC_A2                    9.5940E+01  4.5890E+03  2.8560E+01 !
 ELEMENT NI   FCC_A1                    5.8690E+01  4.7870E+03  2.9796E+01 !
 ELEMENT W    BCC_A2                    1.8385E+02  4.9700E+03  3.2620E+01 !
$
 FUNCTION GWLIQ      2.98150E+02  +52160.584-14.10999*T-2.713468E-24*T**7
     +GHSERWW#;  3.69500E+03  Y
      +52432.75-14.187335*T-1.528621E+33*T**(-9)+GHSERWW#;  6.00000E+03  N !
 FUNCTION GNILIQ     2.98150E+02  +11235.527+108.457*T-22.096*T*LN(T)
     -.0048407*T**2-3.82318E-21*T**7;  1.72800E+03  Y
      -9549.775+268.598*T-43.1*T*LN(T);  6.00000E+03  N !
 FUNCTION GMOLIQ     2.98150E+02  +34085.045+117.224788*T-23.56414*T*LN(T)
     -.003443396*T**2+5.66283E-07*T**3+65812*T**(-1)-1.30927E-10*T**4
     +4.24519E-22*T**7;  2.89600E+03  Y
      +3538.963+271.6697*T-42.63829*T*LN(T);  5.00000E+03  N !
 FUNCTION GHSERWW    2.98150E+02  -7646.311+130.4*T-24.1*T*LN(T)
     -.001936*T**2+2.07E-07*T**3+44500*T**(-1)-5.33E-11*T**4;  3.69500E+03  Y
      -82868.801+389.362335*T-54*T*LN(T)+1.528621E+33*T**(-9);  6.00000E+03  
     N !
 FUNCTION GNIBCC     2.98150E+02  +8715.084-3.556*T+GHSERNI#;   6.00000E+03  
      N !
 FUNCTION GHSERMO    2.98150E+02  -7746.302+131.9197*T-23.56414*T*LN(T)
     -.003443396*T**2+5.66283E-07*T**3+65812*T**(-1)-1.30927E-10*T**4;  
     2.89600E+03  Y
      -30556.41+283.559746*T-42.63829*T*LN(T)-4.849315E+33*T**(-9);  
     5.00000E+03  N !
 FUNCTION GWFCC      2.98150E+02  +19300+.63*T+GHSERWW#;   6.00000E+03   N !
 FUNCTION GHSERNI    2.98150E+02  -5179.159+117.854*T-22.096*T*LN(T)
     -.0048407*T**2;  1.72800E+03  Y
      -27840.655+279.135*T-43.1*T*LN(T)+1.12754E+31*T**(-9);  6.00000E+03  N 
     !
 FUNCTION GMOFCC     2.98150E+02  +7453.698+132.5497*T-23.56414*T*LN(T)
     -.003443396*T**2+5.66283E-07*T**3+65812*T**(-1)-1.30927E-10*T**4;  
     2.89600E+03  Y
      -15356.41+284.189746*T-42.63829*T*LN(T)-4.849315E+33*T**(-9);  
     5.00000E+03  N !
 FUNCTION GNIHCP     2.98150E+02  -4133.159+119.109*T-22.096*T*LN(T)
     -.0048407*T**2;  1.72800E+03  Y
      -26794.655+280.39*T-43.1*T*LN(T)+1.12754E+31*T**(-9);  6.00000E+03  N !
 FUNCTION GWHCP      2.98150E+02  +14750+GHSERWW#;   6.00000E+03   N !
 FUNCTION GMOHCP     2.98150E+02  +3803.698+131.9197*T-23.56414*T*LN(T)
     -.003443396*T**2+5.66283E-07*T**3+65812*T**(-1)-1.30927E-10*T**4;  
     2.89600E+03  Y
      -19006.41+283.559746*T-42.63829*T*LN(T)-4.849315E+33*T**(-9);  
     5.00000E+03  N !
 
 TYPE_DEFINITION % SEQ *!
 DEFINE_SYSTEM_DEFAULT ELEMENT 2 !
 DEFAULT_COMMAND DEF_SYS_ELEMENT VA /- !


 PHASE LIQUID  %  1  1.0  !
    CONSTITUENT LIQUID  :MO,NI,W :  !

   PARAMETER G(LIQUID,MO;0)  2.98150E+02  +GMOLIQ#;   6.00000E+03   N   !
   PARAMETER G(LIQUID,NI;0)  2.98150E+02  +GNILIQ#;   6.00000E+03   N   !
   PARAMETER G(LIQUID,W;0)  2.98150E+02  +GWLIQ#;   6.00000E+03   N   !
   PARAMETER G(LIQUID,MO,NI;0)  2.98150E+02  -40224+15.75*T;   6000    N   !
   PARAMETER G(LIQUID,MO,NI;1)  2.98150E+02  3347;   6.00000E+03   N   !
   PARAMETER G(LIQUID,NI,W;0)  2.98150E+02  +16290-10.25*T;  6000  N   !
   PARAMETER G(LIQUID,NI,W;1)  2.98150E+02  -22450;   6.00000E+03   N   !



 TYPE_DEFINITION ( GES A_P_D FCC_A1 MAGNETIC  -3.0    2.80000E-01 !
 PHASE FCC_A1  %(  2 1   1 !
    CONSTITUENT FCC_A1  :MO,NI,W : VA :  !

   PARAMETER G(FCC_A1,MO:VA;0)  2.98150E+02  +GMOFCC#;   6.00000E+03   N  !
   PARAMETER G(FCC_A1,NI:VA;0)  2.98150E+02  +GHSERNI#;   6.00000E+03  N  !
   PARAMETER TC(FCC_A1,NI:VA;0)  2.98150E+02  633;   6.00000E+03   N   !
   PARAMETER BMAGN(FCC_A1,NI:VA;0)  2.98150E+02  .52;   6.00000E+03   N   !
   PARAMETER G(FCC_A1,W:VA;0)  2.98150E+02  +GWFCC#;   6.00000E+03   N   !
   PARAMETER G(FCC_A1,MO,NI:VA;0)  2.98150E+02  -3765;   6.00000E+03   N  !
   PARAMETER G(FCC_A1,MO,NI:VA;1)  2.98150E+02  12548;   6.00000E+03   N  !
   PARAMETER G(FCC_A1,MO,W:VA;0)  2.98150E+02  2000;   6.00000E+03   N   !
   PARAMETER G(FCC_A1,NI,W:VA;0)  2.98150E+02  +2556+11.6*T;   6000  N   !
   PARAMETER G(FCC_A1,NI,W:VA;1)  2.98150E+02  -52900;   6.00000E+03   N  !
$ ********************** ASSESSED PARAMETERS *************************
   PARAMETER G(FCC_A1,MO,NI,W:VA;0)  298.15    0;                  6000 N !
   PARAMETER G(FCC_A1,MO,NI,W:VA;1)  298.15    -54063+135.606*T;   6000 N !
   PARAMETER G(FCC_A1,MO,NI,W:VA;2)  298.15    -175362;            6000 N !




 TYPE_DEFINITION & GES A_P_D BCC_A2 MAGNETIC  -1.0    4.00000E-01 !
 PHASE BCC_A2  %&  2 1   3 !
    CONSTITUENT BCC_A2  :MO,NI,W : VA :  !

   PARAMETER G(BCC_A2,MO:VA;0)  2.98150E+02  +GHSERMO#;   6.00000E+03   N  !
   PARAMETER G(BCC_A2,NI:VA;0)  2.98150E+02  +GNIBCC#;   6.00000E+03   N   !
   PARAMETER TC(BCC_A2,NI:VA;0)  2.98150E+02  575;   6.00000E+03   N   !
   PARAMETER BMAGN(BCC_A2,NI:VA;0)  2.98150E+02  .85;   6.00000E+03   N   !
   PARAMETER G(BCC_A2,W:VA;0)  2.98150E+02  +GHSERWW#;   6.00000E+03   N   !
   PARAMETER G(BCC_A2,MO,NI:VA;0)  2.98150E+02  42679;   6.00000E+03   N  !
   PARAMETER G(BCC_A2,MO,NI:VA;1)  2.98150E+02  4825;   6.00000E+03   N   !
   PARAMETER G(BCC_A2,MO,W:VA;0)  2.98150E+02  2000;   6.00000E+03   N   !
   PARAMETER G(BCC_A2,NI,W:VA;0)  2.98150E+02  82000;   6.00000E+03   N   !



 PHASE NI4M  %  2 4   1 !
    CONSTITUENT NI4M  :NI : MO,W :  !

   PARAMETER G(NI4M,NI:W;0)  2.98150E+02  +GHSERWW#+4*GHSERNI#-11328.6-5.9*T;
     6.00000E+03   N   !
   PARAMETER G(NI4M,NI:MO;0)  2.98150E+02  +GHSERMO#+4*GHSERNI#-16772.5-.15*T;
     6.00000E+03   N   !



 PHASE MONI  %  3 .428571   .357143   .214286 !
    CONSTITUENT MONI  :NI : MO,NI,W : MO,W :  !

   PARAMETER G(MONI,NI:MO:MO;0)  2.98150E+02  -4687.48+26.336*T
  -3.408*T*LN(T)+.4285714*GHSERNI#+.5714286*GHSERMO#;   6.00000E+03   N   !
   PARAMETER G(MONI,NI:NI:MO;0)  2.98150E+02  -1402.8-7.908*T+1.165*T*LN(T)
  +.4285714*GHSERNI#+.3571429*GNIBCC#+.2142857*GHSERMO#;   6.00000E+03   N  !
$ ********************** ASSESSED PARAMETERS *************************
 PARAMETER G(MONI,NI:MO:W;0)   298.15    +.4285714*GHSERNI+.3571429*GHSERMO
                                         +.2142857*GHSERWW;      6000 N !
 PARAMETER G(MONI,NI:W:MO;0)   298.15    +.4285714*GHSERNI+.3571429*GHSERWW
                                         +.2142857*GHSERMO;      6000 N !
 PARAMETER G(MONI,NI:MO,W:MO;0)   298.15    +1220-3.284*T;      6000 N !



 PHASE MONI3  %  2 .75   .25 !
    CONSTITUENT MONI3  :MO,NI,W : MO,NI,W :  !

   PARAMETER G(MONI3,MO:MO;0)  2.98150E+02  +GHSERMO#+45000;   6000    N   !
   PARAMETER G(MONI3,NI:MO;0)  2.98150E+02  -3363-.02*T+.75*GHSERNI#
  +.25*GHSERMO#;   6.00000E+03   N   !
   PARAMETER G(MONI3,MO:NI;0)  2.98150E+02  +53363+.02*T+.25*GHSERNI#
  +.75*GHSERMO#;   6.00000E+03   N   !
   PARAMETER G(MONI3,NI:NI;0)  2.98150E+02  +GHSERNI#+5000;   6000  N   !
   PARAMETER G(MONI3,MO,NI:MO;0)  2.98150E+02  -1020;   6.00000E+03   N   !
   PARAMETER G(MONI3,MO:MO,NI;0)  2.98150E+02  -992;   6.00000E+03   N   !
   PARAMETER G(MONI3,NI:MO,NI;0)  2.98150E+02  -992;   6.00000E+03   N   !
   PARAMETER G(MONI3,MO,NI:NI;0)  2.98150E+02  -1020;   6.00000E+03   N   !
$ ********************** ASSESSED PARAMETERS *************************
 PARAMETER G(MONI3,W:MO;0)  298.15   -4204+10.000*T
                                     +0.75*GHSERWW+0.25*GHSERMO;     6000 N !
 PARAMETER G(MONI3,NI:W;0)  298.15   +0.75*GHSERNI+0.25*GHSERWW;     6000 N !



 PHASE NIW2  %  2 1   2 !
    CONSTITUENT NIW2  :NI : W :  !

   PARAMETER G(NIW2,NI:W;0)  2.98150E+02  +2*GHSERWW#+GHSERNI#-4698.1-.125*T;
     6.00000E+03   N   !


 PHASE NIW  %  2 1   1 !
    CONSTITUENT NIW  :NI : W :  !

   PARAMETER G(NIW,NI:W;0)  2.98150E+02  +GHSERWW#+GHSERNI#-4403.6-.343*T;   
  6.00000E+03   N   !
$