
$ Database file
$
 ELEMENT /-   ELECTRON_GAS              0.0000E+00  0.0000E+00  0.0000E+00!
 ELEMENT VA   VACUUM                    0.0000E+00  0.0000E+00  0.0000E+00!
 ELEMENT B    BETA_RHOMBO_B             1.0811E+01  1.2220E+03  5.9000E+00!
 ELEMENT FE   BCC_A2                    5.5847E+01  4.4890E+03  2.7280E+01!
 ELEMENT ND   DOUBLE_HCP(ABAC)          1.4424E+02  0.0000E+00  0.0000E+00!


 FUNCTION GHSERFE    2.98140E+02  +1225.7+124.134*T-23.5143*T*LN(T)
     -.00439752*T**2-5.8927E-08*T**3+77359*T**(-1);  1.81100E+03  Y
      -25383.581+299.31255*T-46*T*LN(T)+2.29603E+31*T**(-9);  6.00000E+03  N 
     !
 FUNCTION GFELIQ     2.98140E+02  +12040.17-6.55843*T-3.6751551E-21*T**7
     +GHSERFE#;  1.81100E+03  Y
      -10839.7+291.302*T-46*T*LN(T);  6.00000E+03  N !
 FUNCTION GHSERBB    2.98140E+02  -7735.284+107.111864*T-15.6641*T*LN(T)
     -.006864515*T**2+6.18878E-07*T**3+370843*T**(-1);  1.10000E+03  Y
      -16649.474+184.801744*T-26.6047*T*LN(T)-7.9809E-04*T**2-2.556E-08*T**3
     +1748270*T**(-1);  2.34800E+03  Y
      -36667.582+231.336244*T-31.5957527*T*LN(T)-.00159488*T**2
     +1.34719E-07*T**3+11205883*T**(-1);  3.00000E+03  Y
      -21530.653+222.396264*T-31.4*T*LN(T);  6.00000E+03  N !
 FUNCTION GBBCC      2.98150E+02  +43514-12.217*T+GHSERBB#;   6.00000E+03   
     N !
 FUNCTION GHSERND    2.98140E+02  -8402.93+111.10239*T-27.0858*T*LN(T)
     +5.56125E-04*T**2-2.6923E-06*T**3+34887*T**(-1);  9.00000E+02  Y
      -6984.083+83.662617*T-22.7536*T*LN(T)-.00420402*T**2-1.802E-06*T**3;  
     1.12800E+03  Y
      -225610.846+1673.04075*T-238.182873*T*LN(T)+.078615997*T**2
     -6.048207E-06*T**3+38810350*T**(-1);  1.79900E+03  Y
      -25742.331+276.257088*T-48.7854*T*LN(T);  1.80000E+03  N !
 FUNCTION GBFCC      2.98150E+02  +50208-13.472*T+GHSERBB#;   6.00000E+03   
     N !
 FUNCTION GFEFCC     2.98140E+02  -1462.4+8.282*T-1.15*T*LN(T)+6.4E-04*T**2
     +GHSERFE#;  1.81100E+03  Y
      -27098.266+300.25256*T-46*T*LN(T)+2.78854E+31*T**(-9);  6.00000E+03  N 
     !
	 
 FUNCTION EDFCC     298.15  +1011.28412+9.6821737*T; 6000.0 N !
 FUNCTION FGTWO1    298.15 EDFCC#*R**(-1); 6000.0 N !
 FUNCTION FGTWO2    298.15 -FGTWO1#*T**(-1); 6000.0 N !
 FUNCTION FGTWO3    298.15 1.0+EXP(FGTWO2#); 6000.0 N !
 FUNCTION GTWOS     298.15 -R*T*LN(FGTWO3#); 6000.0 N !

 FUNCTION GEIN1T   298.15 +294; 6000 N !
 FUNCTION TEMP     298.15 +T**(-1); 6000 N !
 FUNCTION TEMPC1   298.15 -GEIN1T#*TEMP# ; 6000 N !
 FUNCTION GEINV1C  298.15 +1-1*EXP(TEMPC1#); 6000 N !
 FUNCTION GEINVS  298.15 +LN(GEINV1C#); 6000 N !
 FUNCTION GEINVE  298.15 +3*R*T*GEINVS#; 6000 N !

 FUNCTION GEINS   298.15 +1.5*R*GEIN1T#+GEINVE#; 6000 N !
 
 FUNCTION UN_ASS     2.98140E+02  0.0 ;  3.00000E+02  N !

 TYPE_DEFINITION % SEQ *!
 DEFINE_SYSTEM_DEFAULT SPECIE 2 !
 DEFAULT_COMMAND DEF_SYS_ELEMENT VA !


 PHASE LIQUID:L %  1  1.0  !
    CONSTITUENT LIQUID:L :B,FE,ND :  !

   PARAMETER G(LIQUID,B;0)  2.98140E+02  +40723.275+86.843839*T
  -15.6641*T*LN(T)-.006864515*T**2+6.18878E-07*T**3+370843*T**(-1);  
  5.00000E+02  Y
   +41119.703+82.101722*T-14.9827763*T*LN(T)-.007095669*T**2
  +5.07347E-07*T**3+335484*T**(-1);  2.34800E+03  Y
   +28842.012+200.94731*T-31.4*T*LN(T);  6.00000E+03  N REF:283 !
   PARAMETER G(LIQUID,FE;0)  2.98150E+02  +GFELIQ#;   6.00000E+03   N 
  REF:283 !
   PARAMETER G(LIQUID,ND;0)  2.98140E+02  -3351.187+109.517314*T
  -27.0858*T*LN(T)+5.56125E-04*T**2-2.6923E-06*T**3+34887*T**(-1);  
  3.00000E+02  Y
   +5350.01-86.593963*T+5.357301*T*LN(T)-.046955463*T**2+6.860782E-06*T**3
  -374380*T**(-1);  1.12800E+03  Y
   -16335.232+268.625903*T-48.7854*T*LN(T);  1.80000E+03  N REF:283 !
   PARAMETER G(LIQUID,B,FE;0)  2.98150E+02  -133438+33.946*T;   6.00000E+03  
   N REF:296 !
   PARAMETER G(LIQUID,B,FE;1)  2.98150E+02  7771;   6.00000E+03   N REF:296 !
   PARAMETER G(LIQUID,B,FE;2)  2.98150E+02  29739;   6.00000E+03   N REF:296 !
   PARAMETER G(LIQUID,B,ND;0)  2.98150E+02  -50000+2.0295*T;   6.00000E+03   
  N REF:0 !
   PARAMETER G(LIQUID,B,ND;1)  2.98150E+02  -12000+1.4369*T;   6.00000E+03   
  N REF:0 !
   PARAMETER G(LIQUID,B,ND;2)  2.98150E+02  -5000;   6.00000E+03   N REF:0 !
   PARAMETER G(LIQUID,FE,ND;0)  2.98150E+02  -4103.5+7.7*T;   6.00000E+03   
  N REF:0 !
   PARAMETER G(LIQUID,FE,ND;1)  2.98150E+02  -1883.84+6.8*T;   6.00000E+03   
  N REF:0 !
   PARAMETER G(LIQUID,FE,ND;2)  2.98150E+02  +153.74+1.65*T;   6.00000E+03   
  N REF:0 !
   PARAMETER G(LIQUID,B,FE,ND;0)  2.98150E+02  -75000;   6.00000E+03   N 
  REF:0 !
   PARAMETER G(LIQUID,B,FE,ND;1)  2.98150E+02  -15000;   6.00000E+03   N 
  REF:0 !
   PARAMETER G(LIQUID,B,FE,ND;2)  2.98150E+02  50000;   6.00000E+03   N 
  REF:0 !


 PHASE B4ND  %  2 0.8   0.2 !
    CONSTITUENT B4ND  :B : ND :  !

   PARAMETER G(B4ND,B:ND;0)  1.00000E-01  
   -68552.9251+3.4776*T-0.00005*T**3+0.000000038*T**4;  
   2.98140E+02  Y
   -76000+143.0776*T-21.3*T*LN(T)-0.0033*T**2+380000*T**(-1)+9E-8*T**3;  
   6.00000E+03  N REF:296 !


 PHASE B5ND2  %  2 0.714286   0.285714 !
    CONSTITUENT B5ND2  :B : ND :  !

   PARAMETER G(B5ND2,B:ND;0)  1.00000E-01  
   -61920.055-2.8092*T-5.7E-5*T**3+4.64E-8*T**4; 
   2.98140E+02  Y
   -60000+11.4375*T+0.714286*GHSERBB#+0.285714*GHSERND#;  
   6.00000E+03  N REF:296 !


 PHASE B66ND  %  2 0.985075   0.014925 !
    CONSTITUENT B66ND  :B : ND :  !

   PARAMETER G(B66ND,B:ND;0)  1.00000E-01  
   -6365.2463-6.4006*T-1.7612E-5*T**3-5.9701E-9*T**4; 
   2.98140E+02  Y
   -7000+0.8760*T+0.985075*GHSERBB+0.014925*GHSERND;  
   6.00000E+03  N REF:296 !


 PHASE B6ND  %  2 0.857143   0.142857 !
    CONSTITUENT B6ND  :B : B,ND :  !

   PARAMETER G(B6ND,B:B;0)  2.98150E+02  
  457.1429+0.5714*T+GHSERBB;
   6.00000E+03   N REF:296 !
   PARAMETER G(B6ND,B:ND;0)  1.00000E-01  
   -49588.0502-0.71429*T-0.00005214*T**3+0.000000044*T**4;  
   2.98140E+02  Y
   -54714.2857+103.4286*T-16.0714*T*LN(T)-0.00507143*T**2
+235714.286*T**(-1)+1.2143E-7*T**3;  
   6.00000E+03   N REF:296 !
   PARAMETER G(B6ND,B:B,ND;0)  2.98150E+02  
   1585.7143-1.5714*T;
   6.00000E+03   N REF:296 !


 TYPE_DEFINITION & GES A_P_D BCC_A2 MAGNETIC  -1.0    4.00000E-01 !
 PHASE BCC_A2  %&  2 1   3 !
    CONSTITUENT BCC_A2  :B,FE%,ND : VA% :  !

   PARAMETER G(BCC_A2,B:VA;0)  2.98150E+02  +GBBCC#;   6.00000E+03   N 
  REF:296 !
   PARAMETER G(BCC_A2,FE:VA;0)  2.98150E+02  +GHSERFE#;   6.00000E+03   N 
  REF:283 !
   PARAMETER TC(BCC_A2,FE:VA;0)  2.98150E+02  1043;   6.00000E+03   N 
  REF:281 !
   PARAMETER BMAGN(BCC_A2,FE:VA;0)  2.98150E+02  2.22;   6.00000E+03   N 
  REF:281 !
   PARAMETER G(BCC_A2,ND:VA;0)  2.98140E+02  -6965.635+110.556109*T
  -27.0858*T*LN(T)+5.56125E-04*T**2-2.6923E-06*T**3+34887*T**(-1);  
  4.00000E+02  Y
   +7312.2-153.033976*T+14.9956777*T*LN(T)-.050479*T**2+7.287217E-06*T**3
  -831810*T**(-1);  1.12800E+03  Y
   -18030.266+239.677322*T-44.5596*T*LN(T);  1.28900E+03  Y
   +334513.017-2363.9199*T+311.409193*T*LN(T)-.156030778*T**2
  +1.2408421E-05*T**3-64319604*T**(-1);  1.80000E+03  N REF:283 !
   PARAMETER G(BCC_A2,B,FE:VA;0)  2.98150E+02  -47920+42.089*T;   
  6.00000E+03   N REF:0 !
   PARAMETER G(BCC_A2,B,FE,ND:VA;0)  2.98150E+02  +90000+5*T;   6.00000E+03  
   N REF:296 !
   PARAMETER G(BCC_A2,B,ND:VA;0)  2.98150E+02  -3900-6.1186339*T;   
  6.00000E+03   N REF:0 !
   PARAMETER G(BCC_A2,FE,ND:VA;0)  2.98150E+02  72000;   6.00000E+03   N 
  REF:0 !


 PHASE BETA_RHOMBO_B  %  1  1.0  !
    CONSTITUENT BETA_RHOMBO_B  :B% :  !

   PARAMETER G(BETA_RHOMBO_B,B;0)  2.98150E+02  +GHSERBB#;   6.00000E+03   N 
  REF:283 !


 PHASE DHCP  %  1  1.0  !
    CONSTITUENT DHCP  :ND :  !

   PARAMETER G(DHCP,ND;0)  2.98140E+02  +GHSERND#;  1.80000E+03  N REF:283 !


 TYPE_DEFINITION ' GES A_P_D FCC_A1 MAGNETIC  -3.0    2.80000E-01 !
 PHASE FCC_A1  %'  2 1   1 !
    CONSTITUENT FCC_A1  :B,FE%,ND : VA% :  !

   PARAMETER G(FCC_A1,B:VA;0)  2.98150E+02  +GBFCC#;   6.00000E+03   N 
  REF:296 !
   PARAMETER G(FCC_A1,FE:VA;0)  2.98150E+02  +GFEFCC#;   6.00000E+03   N 
  REF:283 !
   PARAMETER TC(FCC_A1,FE:VA;0)  2.98150E+02  -201;   6.00000E+03   N 
  REF:281 !
   PARAMETER BMAGN(FCC_A1,FE:VA;0)  2.98150E+02  -2.1;   6.00000E+03   N 
  REF:281 !
   PARAMETER G(FCC_A1,ND:VA;0)  2.98150E+02  +GHSERND#+20000;   6.00000E+03  
   N REF:283 !
   PARAMETER G(FCC_A1,B,FE:VA;0)  2.98150E+02  -62951+49.904*T;   
  6.00000E+03   N REF:296 !
   PARAMETER G(FCC_A1,B,FE,ND:VA;0)  2.98150E+02  90000;   6.00000E+03   N 
  REF:296 !
   PARAMETER G(FCC_A1,B,ND:VA;0)  2.98150E+02  75000;   6.00000E+03   N 
  REF:296 !
   PARAMETER G(FCC_A1,FE,ND:VA;0)  2.98150E+02  50000;   6.00000E+03   N 
  REF:296 !


 TYPE_DEFINITION ) GES A_P_D FE17ND2 MAGNETIC  -3.0    2.80000E-01 !
 PHASE FE17ND2  %)  2 0.894737   0.105263 !
    CONSTITUENT FE17ND2  :FE : ND :  !

   PARAMETER G(FE17ND2,FE:ND;0)  2.98150E+02  
   -8684.2105+4.7127*T+0.894737*GHSERFE+0.105263*GHSERND;
   6.00000E+03   N REF:319 !
   PARAMETER TC(FE17ND2,FE:ND;0)  2.00000E+02  
   327;  3.60000E+03  N REF:281 !
   PARAMETER BMAGN(FE17ND2,FE:ND;0)  2.00000E+02  
   0.0649;  3.60000E+03  N REF:281 !


 TYPE_DEFINITION * GES A_P_D FE17ND5 MAGNETIC  -3.0    2.80000E-01 !
 PHASE FE17ND5  %*  2 0.772727   0.227273 !
    CONSTITUENT FE17ND5  :FE : ND :  !

   PARAMETER G(FE17ND5,FE:ND;0)  2.98150E+02  
   -7500+3.8131*T+0.772727*GHSERFE+0.227273*GHSERND;
   6.00000E+03   N REF:319 !
   PARAMETER TC(FE17ND5,FE:ND;0)  2.00000E+02  
   503;  3.60000E+03  N REF:281 !
   PARAMETER BMAGN(FE17ND5,FE:ND;0)  2.00000E+02  
   0.0558;  3.60000E+03  N REF:281 !

 PHASE FEB  % 2 0.5  0.5 !
    CONSTITUENT FEB  :FE : B :  !
   PARAMETER G(FEB,FE:B;0)  2.98150E+02  
   -35287+5.992*T+0.5*GHSERFE#+0.5*GHSERBB#;   
   6.00000E+03   N REF:0 !


   PHASE FE2B  %  2 0.6667   0.3333 !
    CONSTITUENT FE2B  :FE : B :  !
   PARAMETER G(FE2B,FE:B;0)  2.98150E+02  
   -26261+3.466*T+0.6667*GHSERFE#+0.3333*GHSERBB#;   
   6.00000E+03   N REF:2013 !



 TYPE_DEFINITION ( GES A_P_D FE14ND2B MAGNETIC  -3.0    2.80000E-01 !
 PHASE FE14ND2B  %(  3 0.8235294   0.1176471   0.0588235 !
    CONSTITUENT FE14ND2B  :FE : ND : B :  !

   PARAMETER G(FE14ND2B,FE:ND:B;0)  1.00000E-01   
   -14354.3836-2.8534*T-0.00414178*T**2
   +GEINS#+GTWOS#;
   6.00000E+03  N REF:319 !

   PARAMETER TC(FE14ND2B,FE:ND:B;0)  2.00000E+02  586;  3.60000E+03  N 
  REF:281 !
   PARAMETER BMAGN(FE14ND2B,FE:ND:B;0)  
   2.00000E+02   0.93;   3.60000E+03   N   REF:281 !
   


 TYPE_DEFINITION . GES A_P_D FE4NDB4 MAGNETIC  -3.0    2.80000E-01 !
 PHASE FE4NDB4  %.  3 0.439078   0.121844   0.439078 !
    CONSTITUENT FE4NDB4  :FE : ND : B :  !

   PARAMETER G(FE4NDB4,FE:ND:B;0)  1.00000E-01  
   -42312.2194-4.1712*T-8.7815587E-05*T**3+8.7815587E-08*T**4;
   2.98140E+02  Y
   -43755.31175+9.1539*T
   +0.439078*GHSERFE#+0.121844*GHSERND#+0.439078*GHSERBB#;
   6.00000E+03  N   REF:0 !
   PARAMETER TC(FE4NDB4,FE:ND:B;0)  2.98150E+02  
   10;   6.00000E+03   N REF:0 !
   PARAMETER BMAGN(FE4NDB4,FE:ND:B;0)  2.98150E+02  
   0.2;   6.00000E+03   N REF:0 !

 TYPE_DEFINITION - GES A_P_D FE2ND5B6 MAGNETIC  -3.0    2.80000E-01 !
 PHASE FE2ND5B6  %-  3 0.153846   0.384615   0.461539 !
    CONSTITUENT FE2ND5B6  :FE : ND : B :  !

   PARAMETER G(FE2ND5B6,FE:ND:B;0)  1.00000E-01  
   -43751.6451-13.2692*T-9.03846154E-05*T**3+9.06153846E-08*T**4;
   2.98140E+02  Y
   -42512.3285+7.9552*T
   +0.153846*GHSERFE#+0.384615*GHSERND#+0.461539*GHSERBB#;
   6.00000E+03  N   REF:0 !
   PARAMETER TC(FE2ND5B6,FE:ND:B;0)  2.98150E+02  
   64;   6.00000E+03   N   REF:0 !
   PARAMETER BMAGN(FE2ND5B6,FE:ND:B;0)  2.98150E+02  
   0.5;   6.00000E+03   N   REF:0 !


 LIST_OF_REFERENCES
 NUMBER  SOURCE

  ! 

