
$ Database file written 01-03-2016
$
 ELEMENT /-   ELECTRON_GAS              0.0000E+00  0.0000E+00  0.0000E+00!
 ELEMENT VA   VACUUM                    0.0000E+00  0.0000E+00  0.0000E+00!
 ELEMENT CO   HCP_A3                    5.8933E+01  0.0000E+00  0.0000E+00!
 ELEMENT GD   HCP_A3                    1.5725E+02  0.0000E+00  0.0000E+00!
 ELEMENT TI   HCP_A3                    4.7880E+01  4.8100E+03  3.0648E+01!

 TYPE_DEFINITION % SEQ * !
 DEFINE_SYSTEM_DEFAULT SPECIE 2 !
 DEFAULT_COMMAND DEF_SYS_ELEMENT VA !
 
 FUNCTION UN_ASS     2.98140E+02  0.0 ;  3.00000E+02  N !

$=== GHSER [SSOL] ======================================================== 

$ ref.state Co : hcp@298.15 K
$ ref.state Ti : hcp@298.15 K 
$ ref.state Gd : hcp@298.15 K

FUNCTION GCOHCP    298.15
 310.241+133.36601*T-25.0861*T*LN(T)-2.654739E-3*T**2-0.17348E-6*T**3
 +72527*T**(-1);  1768.00 Y
 -17197.666+253.28374*T-40.5*T*LN(T)+934.88E28*T**(-9);  6000.00 N !
 
FUNCTION GCOFCC   298.15
 737.832+132.750762*T-25.0861*T*LN(T)-2.654739E-3*T**2-0.17348E-6*T**3
 +72527*T**(-1);  1768.00 Y
 -16770.075+252.668487*T-40.5*T*LN(T)+934.88E28*T**(-9);  6000.00 N !

FUNCTION GCOLIQ   298.15
 15395.278+124.434078*T-25.0861*T*LN(T)-2.654739E-3*T**2-0.17348E-6*T**3
 +72527*T**(-1)-219.801E-23*T**7;  1768.00 Y
 -846.61+243.599944*T-40.5*T*LN(T);  6000.00 N !

FUNCTION GCOBCC   298.15
 3248.241+132.65221*T-25.0861*T*LN(T)-2.654739E-3*T**2-0.17348E-6*T**3
 +72527*T**(-1);  1768.00 Y
 -14259.666+252.56994*T-40.5*T*LN(T)+934.88E28*T**(-9);  6000.00 N !
 
FUNCTION GTIBCC  298.15  -1272.06+134.714*T-25.5768*T*LN(T)-0.000663845*T**2
 +7208*T**(-1)-2.78803e-007*T**3;  1155 Y 6667.39+105.366*T-22.3771*T*LN(T)
 +0.00121707*T**2-2.00275e+006*T**(-1)-8.4534e-007*T**3; 1941 Y
 26483.3-182.426*T+19.0901*T*LN(T)-0.0220083*T**2+1.4005e+006*T**(-1)
 +1.22886e-006*T**3; 4000 N !

FUNCTION GTIFCC  298.15  -2059.92+133.515*T-23.9933*T*LN(T)-0.00477798*T**2
 +72636*T**(-1)+1.06716e-007*T**3;
 900 Y	-1811.82+132.888*T-23.9887*T*LN(T)-0.0042033*T**2+42680*T**(-1)
 -9.0876e-008*T**3; 1155 Y
 6908.84+66.8765*T-14.9466*T*LN(T)-0.0081465*T**2-1.47766e+006*T**(-1)
 +2.02715e-007*T**3; 1941 Y
 -118527+638.707*T-87.2182*T*LN(T)+0.00820485*T**2+3.66998e+007*T**(-1)
 -3.04747e-007*T**3; 4000 N !

FUNCTION GTIHCP  298.15  -8059.92+133.615*T-23.9933*T*LN(T)-0.00477798*T**2
 +72636*T**(-1)+1.06716e-007*T**3;
  900 Y	-7811.81+132.988*T-23.9887*T*LN(T)-0.0042033*T**2+42680*T**(-1)
  -9.0876e-008*T**3; 1155 Y
 908.837+66.9765*T-14.9466*T*LN(T)-0.0081465*T**2-1.47766e+006*T**(-1)
 +2.02715e-007*T**3; 1941 Y
 -124527+638.807*T-87.2182*T*LN(T)+0.00820485*T**2+3.66998e+007*T**(-1)
 -3.04747e-007*T**3; 4000 N !

FUNCTION GTILIQ  298.15  4134.49+126.634*T-23.9933*T*LN(T)-0.00477798*T**2
 +72636*T**(-1)+1.06716e-007*T**3;
 900 Y 4382.6+126.007*T-23.9887*T*LN(T)-0.0042033*T**2+42680*T**(-1)
 -9.0876e-008*T**3; 1155 Y
 13103.3+59.9956*T-14.9466*T*LN(T)-0.0081465*T**2-1.47766e+006*T**(-1)
 +2.02715e-007*T**3; 1300 Y
 369519-2554.02*T+342.059*T*LN(T)-0.163409*T**2-6.70345e+007*T**(-1)
 +1.24571e-005*T**3; 1941 Y
 -19887.1+298.737*T-46.29*T*LN(T); 4000 N !
  
FUNCTION GGDHCP  200 -6834.58550+97.131010*T-24.7214131*T*LN(T)
 -2.85240521E-3*T**2-3.14674076E-7*T**3-8665.73348*T**(-1); 1000 Y
 -6483.25362+95.6919924*T-24.6598297*T*LN(T)-1.85225011E-3*T**2
 -6.61211607E-7*T**3; 1508.15 Y
 -123124.992+699.125537*T-101.800197*T*LN(T)+1.50644246E-2*T**2
 -6.39165948E-7*T**3+29356890.3*T**(-1); 3600 N !

FUNCTION GGDBCC 100 -3600.77684+95.01916415*T
  -24.7214131*T*LN(T)-2.85240521E-3*T**2-3.14674076E-7*T**3-8665.73348*T**(-1);
  1000 Y  152792.743-1349.58873*T+180.097094*T*LN(T)-0.119550229*T**2
  +1.17915728E-5*T**3-22038836*T**(-1); 1508.15 Y
  -15783.7618+202.222057*T-38.9604250*T*LN(T); 1586.15 Y
  -19850.5562+224.817909*T-41.9043330*T*LN(T)+8.58222759E-4*T**2
  -3.77570269E-8*T**3+995428.573*T**(-1); 3600 N !

FUNCTION GGDLIQ 100 6225.4407+88.80921026*T-24.7214131*T*LN(T)
  -2.85240521E-3*T**2-3.14674076E-7*T**3-8665.73348*T**(-1); 1000 Y
  146262.037-1208.70685*T+159.352082*T*LN(T)-0.108247135*T**2
  +1.06945505E-5*T**3-19678357*T**(-1); 1508.15 Y
  -5397.31400+192.336215*T-38.5075000*T*LN(T); 3600 N !

FUNCTION GGDFCC 200 -6334.58550+97.131010*T-24.7214131*T*LN(T)
  -2.85240521E-3*T**2-3.14674076E-7*T**3-8665.73348*T**(-1); 1000 Y
  -5983.25362+95.6919924*T-24.6598297*T*LN(T)-1.85225011E-3*T**2
  -6.61211607E-7*T**3; 1508.15 Y
  -122624.992+699.125537*T-101.800197*T*LN(T)+1.50644246E-2*T**2
  -6.39165948E-7*T**3+29356890.3*T**(-1); 3600 N !


$=== LIQUID ============================================================== 

 PHASE LIQUID:L %  1  1.0  !
    CONSTITUENT LIQUID:L :CO,GD,TI :  !

$--- Unary [SSOL]

 PARAMETER G(LIQUID,CO;0)  298.15   GCOLIQ#;   6000.0 N !
 PARAMETER G(LIQUID,GD;0)  298.15   GGDLIQ#;   6000.0 N !
 PARAMETER G(LIQUID,TI;0)  298.15   GTILIQ#;   6000.0 N !
  
$--- Liquid Co-Ti [99Cacc]
 
 PARAMETER G(LIQUID,CO,TI;0)  298.15  -135810+31.497*T;   6000.0 N !
 PARAMETER G(LIQUID,CO,TI;1)  298.15  -5513.8;            6000.0 N ! 
 PARAMETER G(LIQUID,CO,TI;2)  298.15  +13624;             6000.0 N !
 PARAMETER G(LIQUID,CO,GD;0)  298.15 -136388+324.444*T-34.273*T*LN(T);
 6000 N !
 PARAMETER G(LIQUID,CO,GD;1)  298.15 -9689; 6000 N !
 PARAMETER G(LIQUID,GD,TI;0)  298.15  93481-30.90272*T; 6000 N !
 PARAMETER G(LIQUID,GD,TI;1)  298.15 -8955; 6000 N !
 PARAMETER G(LIQUID,CO,GD,TI;0)  298.15 -20000; 6000 N !
 PARAMETER G(LIQUID,CO,GD,TI;1)  298.15 -50000; 6000 N !
 PARAMETER G(LIQUID,CO,GD,TI;2)  298.15 +40000; 6000 N ! 
  
$=== FCC_A1 =============================================================
 
 TYPE_DEFINITION ) GES A_P_D FCC_A1 MAGNETIC  -3.0    2.80000E-01 !
 PHASE FCC_A1  %)  1 1.0 !
    CONSTITUENT FCC_A1  :CO%,GD,TI : !

$--- Unary Co [SSOL]
 PARAMETER TC(FCC_A1,CO;0) 298.15 1396;        6000.0 N !
 PARAMETER BMAGN(FCC_A1,CO;0) 298.15 1.35;     6000.0 N !
 PARAMETER G(FCC_A1,CO;0) 298.15 GCOFCC#;      6000.0 N !
 
$--- Unary Ti [SSOL]
 PARAMETER G(FCC_A1,TI;0) 298.15 GTIFCC#;      6000.0 N !
 
$--- Unary Gd
 PARAMETER G(FCC_A1,GD;0) 298.15 GGDFCC#;      6000.0  N !
   
$--- FCC_A1 Co-Ti [99Cacc]
 PARAMETER TC(FCC_A1,CO,TI;0) 298.15 -1830;                       6000.0 N !
 PARAMETER TC(FCC_A1,CO,TI;1) 298.15 +970;                        6000.0 N !
 PARAMETER BMAGN(FCC_A1,CO,TI;0) 298.15 -10;                      6000.0 N !
 PARAMETER G(FCC_A1,CO,TI;0) 298.15 -131210+43.351*T;             6000.0 N !
 PARAMETER G(FCC_A1,CO,TI;1) 298.15 -16240;                       6000.0 N !
 
$--- FCC_A1 Co-Gd, Gd-Ti
 PARAMETER G(FCC_A1,CO,GD;0) 298.15  -1000;                      6000.0 N !  
 PARAMETER G(FCC_A1,GD,TI;0) 298.15  +100000.0;                      6000.0 N !   
 
$=== BCC_A2 ================================================================

 TYPE_DEFINITION & GES A_P_D BCC_A2 MAGNETIC  -1.0    4.00000E-01 !
 PHASE BCC_A2  %&  1 1.0 !
    CONSTITUENT BCC_A2  :CO,GD,TI%,VA : !

$--- Unary Co [SSOL]
 PARAMETER TC(BCC_A2,CO;0) 298.15 1450;            6000.0 N !
 PARAMETER BMAGN(BCC_A2,CO;0) 298.15 1.35;         6000.0 N ! 
 PARAMETER G(BCC_A2,CO;0) 298.15 GCOBCC#;          6000.0 N !
 PARAMETER G(BCC_A2,CO,VA;0) 298.15 +100000;       6000.0 N !

$--- Unary Ti [SSOL]
 PARAMETER G(BCC_A2,TI;0) 298.15 GTIBCC#;          6000.0 N !
 PARAMETER G(BCC_A2,TI,VA;0) 298.15 +100000;       6000.0 N !
 
$--- Unary Gd
 PARAMETER G(BCC_A2,GD;0) 298.15 GGDBCC#;          6000.0 N !
 PARAMETER G(BCC_A2,GD,VA;0) 298.15 +100000;       6000.0 N !
 PARAMETER TC(BCC_A2,GD;0) 298.15 293.4;           6000.0 N !
 PARAMETER BMAGN(BCC_A2,GD;0) 298.15 3.0;          6000.0 N ! 

$--- BCC_A2 Co-Ti
 PARAMETER TC(BCC_A2,CO,TI;0) 298.15 -1830;                    6000.0 N !
 PARAMETER TC(BCC_A2,CO,TI;1) 298.15 +970;                     6000.0 N !
 PARAMETER G(BCC_A2,CO,TI;0) 298.15 -115660+40.726*T;          6000.0 N !

$--- BCC_A2 Gd-Ti
PARAMETER G(BCC_A2,GD,TI;0)  298.15  39476+15.687*T;           6000.0 N !
PARAMETER G(BCC_A2,GD,TI;1)  298.15  2152.38;                  6000.0 N !

$--- BCC_A2 Co-Gd
PARAMETER G(BCC_A2,CO,GD;0)  298.15  +100000;                  6000.0 N !
 
$=== HCP_A3 ================================================================

 TYPE_DEFINITION * GES A_P_D HCP_A3 MAGNETIC  -3.0    2.80000E-01 !
 PHASE HCP_A3  %*  1 1.0 !
    CONSTITUENT HCP_A3  :CO,GD,TI% : !
    
$--- Unary CO [SSOL]
 PARAMETER TC(HCP_A3,CO;0) 298.15 1396;                       6000.0 N !
 PARAMETER BMAGN(HCP_A3,CO;0) 298.15 1.35;                    6000.0 N !
 PARAMETER G(HCP_A3,CO;0) 298.15 +GCOHCP#;                    6000.0 N !
 
$--- Unary TI [SSOL]
 PARAMETER G(HCP_A3,TI;0) 298.15 +GTIHCP#;                    6000.0 N !

$--- Unary GD
 PARAMETER TC(HCP_A3,GD;0) 100.00     293.4;                  6000.0 N !
 PARAMETER BMAGN(HCP_A3,GD;0) 100.00  3.0;                    6000.0 N !  
 PARAMETER G(HCP_A3,GD;0) 298.15 +GGDHCP#;                    6000.0 N !
  
$--- HCP_A3 Co-Ti
 PARAMETER G(HCP_A3,CO,TI;0) 298.15 -65952+14.242*T;          6000.0 N !
 
$--- HCP_A3 Gd-Ti
 PARAMETER G(HCP_A3,GD,TI;0) 200.00  44248+19.9839*T;         6000.0 N !
 PARAMETER G(HCP_A3,GD,TI;1) 200.00  2176.21;                 6000.0 N !
 
$--- HCP_A3 Co-Gd
 PARAMETER G(HCP_A3,CO,GD;0) 298.15 +100000;                  6000.0 N !
    
$=== BCC_B2 ================================================================
$    This phase has a disordered contribution from BCC_A2                  

 TYPE_DEFINITION ' GES AMEND_PHASE_DESCRIPTION BCC_B2 DIS_PART BCC_A2,,,!
 TYPE_DEFINITION # GES AMEND_PHASE_DESCRIPTION BCC_B2 C_S 2 CO,TI:VA,,,!
 TYPE_DEFINITION ( GES A_P_D BCC_B2 MAGNETIC  -1.0    4.00000E-01 !
 PHASE BCC_B2  %'#(  2 .5   .5  !
    CONSTITUENT BCC_B2  :CO%,GD,TI,VA : CO,GD,TI%,VA : !

$--- Unary CO [99Cacc]
 PARAMETER G(BCC_B2,CO:VA;0) 298.15 60000;        6000.0 N !
 PARAMETER G(BCC_B2,VA:CO;0) 298.15 60000;        6000.0 N !
 
$--- Unary Ti [99Cacc] 
 PARAMETER G(BCC_B2,TI:VA;0) 298.15 60000;        6000.0 N !
 PARAMETER G(BCC_B2,VA:TI;0) 298.15 60000;        6000.0 N !

$--- Unary Gd
 PARAMETER G(BCC_B2,GD:VA;0) 298.15 60000;        6000.0 N !
 PARAMETER G(BCC_B2,VA:GD;0) 298.15 60000;        6000.0 N ! 

$--- BCC_B2 Co-Ti
 PARAMETER G(BCC_B2,CO:TI;0) 298.15 -21000+2*T;  6000.0 N !
 PARAMETER G(BCC_B2,TI:CO;0) 298.15 -21000+2*T;  6000.0 N !
 PARAMETER G(BCC_B2,CO,TI:TI;0) 298.15 +41873;   6000.0 N !
 PARAMETER G(BCC_B2,TI:CO,TI;0) 298.15 +41873;   6000.0 N !
 PARAMETER TC(BCC_B2,CO:TI;0) 298.15 -400;       6000.0 N !
 PARAMETER TC(BCC_B2,TI:CO;0) 298.15 -400;       6000.0 N !

$--- BCC_B2 Co-Gd
 PARAMETER G(BCC_B2,GD:CO;0) 298.15 +100000;  6000.0 N !
 PARAMETER G(BCC_B2,CO:GD;0) 298.15 +100000;  6000.0 N !

$--- BCC_B2 Gd-Ti
 PARAMETER G(BCC_B2,GD:TI;0) 298.15 +100000;  6000.0 N !
 PARAMETER G(BCC_B2,TI:GD;0) 298.15 +100000;  6000.0 N !

$=== CO2TI_C15 ============================================

 PHASE CO2TI_C15  %  2 2 1 !
    CONSTITUENT CO2TI_C15  :CO%,TI : CO,GD,TI% :  !

$--- Unary CO [99Cacc]
 PARAMETER G(CO2TI_C15,CO:CO;0) 298.15 15000+3*GCOHCP#;      6000.0 N !   
   
$--- Unary TI [99Cacc]   
 PARAMETER G(CO2TI_C15,TI:TI;0) 298.15 15000+3*GTIHCP#;      6000.0 N !  
   
$--- CO2TI_C15 Co-Ti
 PARAMETER G(CO2TI_C15,CO:TI;0) 298.15 -125000+31.496*T
           +2*GCOHCP#+GTIHCP#;       6000.0 N !
 PARAMETER G(CO2TI_C15,TI:CO;0) 298.15 30000+125000-31.496*T
           +GCOHCP#+2*GTIHCP#;  6000.0 N !
           
$--- CO2GD_C15 Co-Gd
 PARAMETER G(CO2TI_C15,CO:GD;0) 298.15 -65745+18.864*T
           +2*GCOHCP#+GGDHCP#;       6000.0 N !
 PARAMETER G(CO2TI_C15,TI:GD;0) 298.15 30000+65745-18.864*T
           +2*GTIHCP#+GGDHCP#;       6000.0 N !
           
$--- CO2(TI,GD) Ternary
 PARAMETER G(CO2TI_C15,*:GD,TI;0) 298.15 +10700+12*T;      6000.0 N !
 
$=== CO2TI_C36 ============================================================

 PHASE CO2TI_C36  %  2 2   1 !
    CONSTITUENT CO2TI_C36  :CO%,TI : CO,TI% :  !

$--- Unary CO [99Cacc]
 PARAMETER G(CO2TI_C36,CO:CO;0) 298.15 15000+3*GCOHCP#;         6000.0 N !   
   
$--- Unary TI [99Cacc]   
 PARAMETER G(CO2TI_C36,TI:TI;0) 298.15 15000+3*GTIHCP#;         6000.0 N !
 
$--- CO2TI_C36 Co-Ti
 PARAMETER G(CO2TI_C36,CO:TI;0) 298.15 +300+.01282*T
     -125000+31.496*T+2*GCOHCP#+GTIHCP#;                       6000.0 N !
 PARAMETER G(CO2TI_C36,TI:CO;0) 298.15 +30000-300-.01282*T
     +125000-31.496*T+GCOHCP#+2*GTIHCP#;                       6000.0 N !
 PARAMETER G(CO2TI_C36,CO:CO,TI;0) 298.15 -44875+25.722*T;       6000.0 N !
 PARAMETER G(CO2TI_C36,TI:CO,TI;0) 298.15 -44875+25.722*T;       6000.0 N !
 
$=== CO3TI_L12 ============================================================
$    This phase has a disordered contribution from FCC_A1                  

 TYPE_DEFINITION + GES AMEND_PHASE_DESCRIPTION CO3TI_L12 DIS_PART FCC_A1,,,!
 TYPE_DEFINITION ^ GES AMEND_PHASE_DESCRIPTION CO3TI_L12 C_S 2 CO:TI,,, !
 TYPE_DEFINITION - GES A_P_D CO3TI_L12 MAGNETIC  -3.0    2.80000E-01 !
 PHASE CO3TI_L12  %+^-  2 .75 .25 !
    CONSTITUENT CO3TI_L12  :CO%,TI : CO,TI% : !
    
$--- Unary [99Cacc]

 PARAMETER G(CO3TI_L12,CO:CO;0) 298.15 0.0;                  6000.0 N !
 PARAMETER G(CO3TI_L12,TI:TI;0) 298.15 0.0;                  6000.0 N !
$ PARAMETER G(CO3TI_L12,GD:GD;0) 298.15 0.0;                  6000.0 N ! 
   
$--- CO3TI_L12 Co-Ti [99Cacc]
 
 FUNCTION U1COTI     298.15 -12274+8.59*T;                   6000.0 N !
 FUNCTION U3COTI     298.15 +621.19+7.3155*T;                6000.0 N !
 FUNCTION U4COTI     298.15 -933.4;                          6000.0 N !
 FUNCTION G4_CO3TI   298.15 +3*U1COTI;                       6000.0 N !
 FUNCTION G4_COTI3   298.15 +3*U1COTI;                       6000.0 N !
 FUNCTION G4_CO2TI2  298.15 +4*U1COTI;                       6000.0 N !
 FUNCTION L4COTI    298.15 +U3COTI;                          6000.0 N !
 FUNCTION L14COTI   298.15 +U4COTI;                          6000.0 N !
 FUNCTION TC_CO3TI   298.15 -999;                            6000.0 N !
 FUNCTION TC_COTI3   298.15 -999;                            6000.0 N !
 FUNCTION TC_CO2TI2  298.15 -1332;                           6000.0 N !
 
 PARAMETER G(CO3TI_L12,CO:TI;0) 298.15 +G4_CO3TI#;           6000.0 N !
 PARAMETER G(CO3TI_L12,TI:CO;0) 298.15 +G4_COTI3#;           6000.0 N !
$ PARAMETER G(CO3TI_L12,CO:GD;0) 298.15 +100000;              6000.0 N !
$ PARAMETER G(CO3TI_L12,TI:GD;0) 298.15 +100000;              6000.0 N !
$ PARAMETER G(CO3TI_L12,GD:CO;0) 298.15 +100000;              6000.0 N !
$ PARAMETER G(CO3TI_L12,GD:TI;0) 298.15 +100000;              6000.0 N !
 PARAMETER TC(CO3TI_L12,CO:TI;0) 298.15 +TC_CO3TI#;          6000.0 N !
 PARAMETER TC(CO3TI_L12,TI:CO;0) 298.15 +TC_COTI3#;          6000.0 N !
 PARAMETER G(CO3TI_L12,CO,TI:CO;0) 298.15 -1.5*G4_COTI3#
     +1.5*G4_CO2TI2#+1.5*G4_CO3TI#+3*L4COTI#;                6000.0 N !
 PARAMETER G(CO3TI_L12,CO,TI:CO;1) 298.15 +0.5*G4_COTI3#
     -1.5*G4_CO2TI2#+1.5*G4_CO3TI#+3*L14COTI#;               6000.0 N !
 PARAMETER TC(CO3TI_L12,CO,TI:CO;0) 298.15 -1.5*TC_COTI3#
     +1.5*TC_CO2TI2#+1.5*TC_CO3TI#;                          6000.0 N !
 PARAMETER TC(CO3TI_L12,CO,TI:CO;1) 298.15 +0.5*TC_COTI3#
     -1.5*TC_CO2TI2#+1.5*TC_CO3TI#;                          6000.0 N !
 PARAMETER G(CO3TI_L12,CO:CO,TI;0) 298.15 +L4COTI;           6000.0 N !
 PARAMETER G(CO3TI_L12,TI:CO,TI;0) 298.15 +L4COTI;           6000.0 N !             
 PARAMETER G(CO3TI_L12,CO:CO,TI;1) 298.15 +L14COTI;          6000.0 N !
 PARAMETER G(CO3TI_L12,TI:CO,TI;1) 298.15 +L14COTI;          6000.0 N !
 PARAMETER G(CO3TI_L12,CO,TI:TI;0) 298.15 +1.5*G4_COTI3#
     +1.5*G4_CO2TI2#-1.5*G4_CO3TI#+3*L4COTI#;                6000.0 N !
 PARAMETER G(CO3TI_L12,CO,TI:TI;1) 298.15 -1.5*G4_COTI3#
     +1.5*G4_CO2TI2#-0.5*G4_CO3TI#+3*L14COTI#;               6000.0 N !
 PARAMETER TC(CO3TI_L12,CO,TI:TI;0) 298.15 +1.5*TC_COTI3#
     +1.5*TC_CO2TI2#-1.5*TC_CO3TI#;                          6000.0 N !
 PARAMETER TC(CO3TI_L12,CO,TI:TI;1) 298.15 -1.5*TC_COTI3#
     +1.5*TC_CO2TI2#-0.5*TC_CO3TI#;                          6000.0 N !
$=== COTI2 ============================================================

 PHASE COTI2  %  2 1   2 !
    CONSTITUENT COTI2  :CO : TI :  !

 PARAMETER G(COTI2,CO:TI;0)  298.15 -113930+30.197*T+GCOHCP#+2*GTIHCP#;
      6000.0 N !

PHASE Co5Gd % 2 0.83333 0.16667 !
Constituent Co5Gd  :CO : GD :  !
Parameter G(Co5Gd,CO:GD;0)  298.15 +0.83333*GCOHCP#+0.16667*GGDHCP#
 -18113+6.258*T-0.12377*T*LN(T); 6000 N !

PHASE Co7Gd2 % 3 0.722225 0.22222 0.055555 !
Constituent Co7Gd2  :CO : GD : CO,TI :  !
Parameter G(Co7Gd2,CO:GD:CO;0)  298.15 +0.77778*GCOHCP#+0.22222*GGDHCP#
 -22552.5+7.28067*T; 6000 N !
Parameter G(Co7Gd2,CO:GD:TI;0)  298.15 +0.722225*GCOHCP#+0.22222*GGDHCP#
 +0.055555*GTIHCP#-26700+8*T; 6000 N !

PHASE Co3Gd % 3 0.666667 0.25 0.083333 !
Constituent Co3Gd  :CO : GD : CO,TI :  !
Parameter G(Co3Gd,CO:GD:CO;0)  298.15 +0.75*GCOHCP#+0.25*GGDHCP#
 -23531.75+7.5655*T; 6000 N !
Parameter G(Co3Gd,CO:GD:TI;0)  298.15 +0.666667*GCOHCP#+0.25*GGDHCP#
 +0.083333*GTIHCP#-27000+8*T; 6000 N !

PHASE Co3Gd4 % 2 0.42857 0.57143 !
Constituent Co3Gd4  :CO : GD :  !
Parameter G(Co3Gd4,Co:Gd;0)  298.15 +0.42857*GCOHCP#+0.57143*GGDHCP#
 -18061.7+17.6277*T-1.60814*T*LN(T); 6000 N !

PHASE CoGd3 % 2 0.25 0.75 !
Constituent CoGd3  :CO : GD :  !
Parameter G(CoGd3,CO:GD;0)  298.15 +0.25*GCOHCP#+0.75*GGDHCP#
 -12516.25+15.62875*T-1.60815*T*LN(T); 6000 N !

PHASE Co17Gd2 % 3 0.789474   0.105263   0.105263 !
   Constituent Co17Gd2  :CO : GD : CO,TI :  !
 Parameter G(Co17Gd2,CO:GD:CO;0)  298.15 +0.894737*GCOHCP#+0.105263*GGDHCP#
 -14853.05+4.6759*T; 6000 N !
  Parameter G(Co17Gd2,CO:GD:TI;0)  298.15 +0.789474*GCOHCP#+0.105263*GGDHCP#
 +0.105263*GTIHCP#-26000+8*T; 6000 N !

$ ------------- TERNARY PHASES ----------------------------------

 TYPE_DEFINITION " GES A_P_D TAU MAGNETIC  -3.0    2.80000E-01 !
 PHASE TAU  %"  3 0.076923   0.615385   0.307692 !
    CONSTITUENT TAU  :GD : CO : CO,TI :  !

   PARAMETER TC(TAU,GD:CO:CO;0)  298.15 1400; 6000 N !
   PARAMETER TC(TAU,GD:CO:TI;0)  298.15 200;  6000 N !  
   PARAMETER BMAGN(TAU,GD:CO:CO;0) 298.15 0.835;  6000 N !  
   PARAMETER BMAGN(TAU,GD:CO:TI;0) 298.15 0.001;  6000 N !  

   PARAMETER G(TAU,GD:CO:CO;0)  298.15  +0.076923*GGDHCP#+0.923077*GCOHCP#
   -8276+15.461*T-1.8127*T*LN(T);   6.00000E+03   N !
   PARAMETER G(TAU,GD:CO:TI;0)  298.15  +0.076923*GGDHCP#+0.615385*GCOHCP#
   +0.307692*GTIBCC#-33638-60.49*T+9.5307*T*LN(T);  6.00000E+03   N !
   PARAMETER G(TAU,GD:CO:CO,TI;0)  298.15  -15000+2*T;  6.00000E+03   N !
 
 $------------------------------ < EOF > -------------------------------
