$ Database file written 2004-12- 3
$
 ELEMENT /-   ELECTRON_GAS              0.0000E+00  0.0000E+00  0.0000E+00!
 ELEMENT VA   VACUUM                    0.0000E+00  0.0000E+00  0.0000E+00!
 ELEMENT AL   FCC_A1                    2.6982E+01  4.5773E+03  2.8322E+01!
 ELEMENT B    BETA_RHOMBO_B             1.0811E+01  1.2220E+03  5.9000E+00!
 ELEMENT C    GRAPHITE                  1.2011E+01  1.0540E+03  5.7400E+00!
 ELEMENT CE   FCC_A1                    1.4012E+02  7.2801E+03  6.9454E+00!
 ELEMENT CU   FCC_A1                    6.3546E+01  5.0041E+03  3.3150E+01!
 ELEMENT FE   BCC_A2                    5.5847E+01  4.4890E+03  2.7280E+01!
 ELEMENT HF   HCP_A3                    1.7849E+02  5.8450E+03  4.3560E+01!
 ELEMENT LI   BCC_A2                    6.9410E+00  4.6233E+03  2.9095E+01!
 ELEMENT MG   HCP_A3                    2.4305E+01  4.9980E+03  3.2671E+01!
 ELEMENT MN   CBCC_A12                  5.4938E+01  4.9960E+03  3.2008E+01!
 ELEMENT N    1/2_MOLE_N2(G)            1.4007E+01  4.3350E+03  9.5751E+01!
 ELEMENT ND   DHCP                      1.4424E+01  7.1337E+03  7.1086E+01!
 ELEMENT NI   FCC_A1                    5.8690E+01  4.7870E+03  2.9797E+01!
 ELEMENT O    1/2_MOLE_O2(G)            1.5999E+01  4.3410E+03  1.0252E+02!
 ELEMENT SI   DIAMOND_A4                2.8085E+01  3.2175E+03  1.8820E+01!
 ELEMENT SN   BCT_A5                    1.1869E+02  6.3220E+03  5.1195E+01!
 ELEMENT TA   BCC_A2                    1.8095E+02  5.6819E+03  4.1472E+01!
 ELEMENT TI   HCP_A3                    4.7880E+01  4.8240E+03  3.0720E+01!
 ELEMENT V    BCC_A2                    5.0942E+01  4.5070E+03  3.0890E+01!
 ELEMENT Y    HCP_A3                    8.8906E+00  1.0000E+00  5.9664E+03!
 ELEMENT ZN   HCP_A3                    6.5380E+01  5.6567E+03  4.1631E+01!
 ELEMENT ZR   HCP_A3                    9.1224E+01  5.5663E+03  3.9181E+01!
$
 SPECIES AL1                         AL!
 SPECIES AL2                         AL2!
 SPECIES B1                          B!
 SPECIES B11C                        B11C1!
 SPECIES B12                         B12!
 SPECIES B1C1                        B1C1!
 SPECIES B1N1                        B1N1!
 SPECIES B2                          B2!
 SPECIES B4                          B4!
 SPECIES BC                          B1C1!
 SPECIES C1                          C!
 SPECIES C1SI1                       C1SI1!
 SPECIES C1SI2                       C1SI2!
 SPECIES C2                          C2!
 SPECIES C2B                         B1C2!
 SPECIES C2SI1                       C2SI1!
 SPECIES C3                          C3!
 SPECIES C4                          C4!
 SPECIES C5                          C5!
 SPECIES CB2                         B2C1!
 SPECIES CBC                         B1C2!
 SPECIES CU2                         CU2!
 SPECIES MG1                         MG!
 SPECIES MG2SN1                      MG2SN1!
 SPECIES N1                          N!
 SPECIES N2                          N2!
 SPECIES N3                          N3!
 SPECIES SI1                         SI!
 SPECIES SI2                         SI2!
 SPECIES SI3                         SI3!
 SPECIES TI1                         TI!
$
 FUNCTION GHSERAL    2.98150E+02  -7976.15+137.093038*T-24.3671976*T*LN(T)
     -.001884662*T**2-8.77664E-07*T**3+74092*T**(-1);  7.00000E+02  Y
      -11276.24+223.048446*T-38.5844296*T*LN(T)+.018531982*T**2
     -5.764227E-06*T**3+74092*T**(-1);  9.33470E+02  Y
      -11278.378+188.684153*T-31.748192*T*LN(T)-1.230524E+28*T**(-9);  
     2.90000E+03  N !
 FUNCTION GHSERBB    2.98150E+02  -7735.284+107.111864*T-15.6641*T*LN(T)
     -.006864515*T**2+6.18878E-07*T**3+370843*T**(-1);  1.10000E+03  Y
      -16649.474+184.801744*T-26.6047*T*LN(T)-7.9809E-04*T**2-2.556E-08*T**3
     +1748270*T**(-1);  2.34800E+03  Y
      -36667.582+231.336244*T-31.5957527*T*LN(T)-.00159488*T**2
     +1.34719E-07*T**3+11205883*T**(-1);  3.00000E+03  Y
      -21530.653+222.396264*T-31.4*T*LN(T);  6.00000E+03  N !
 FUNCTION GHSERCE    2.98150E+02  -7160.519+84.23022*T-22.3664*T*LN(T)
     -.0067103*T**2-3.20773E-07*T**3-18117*T**(-1);  1.00000E+03  Y
      -79678.506+659.4604*T-101.32248*T*LN(T)+.026046487*T**2
     -1.9302976E-06*T**3+11531707*T**(-1);  2.00000E+03  Y
      -14198.639+190.370192*T-37.6978*T*LN(T);  4.00000E+03  N !
 FUNCTION GHSERCR    2.98150E+02  -8856.94+157.48*T-26.908*T*LN(T)
     +.00189435*T**2-1.47721E-06*T**3+139250*T**(-1);  2.18000E+03  Y
      -34869.344+344.18*T-50*T*LN(T)-2.88526E+32*T**(-9);  6.00000E+03  N !
 FUNCTION GHSERCU    2.98150E+02  -7770.458+130.485235*T-24.112392*T*LN(T)
     -.00265684*T**2+1.29223E-07*T**3+52478*T**(-1);  1.35777E+03  Y
      -13542.026+183.803828*T-31.38*T*LN(T)+3.64167E+29*T**(-9);  
     3.20000E+03  N !
 FUNCTION GHSERCC    2.98150E+02  -17368.441+170.73*T-24.3*T*LN(T)
     -4.723E-04*T**2+2562600*T**(-1)-2.643E+08*T**(-2)+1.2E+10*T**(-3);   
     6.00000E+03   N !
 FUNCTION GHSERFE    2.98150E+02  +1225.7+124.134*T-23.5143*T*LN(T)
     -.00439752*T**2-5.8927E-08*T**3+77359*T**(-1);  1.81100E+03  Y
      -25383.581+299.31255*T-46*T*LN(T)+2.29603E+31*T**(-9);  6.00000E+03  N 
     !
 FUNCTION GHSERHF    2.98150E+02  -6987.297+110.744026*T-22.7075*T*LN(T)
     -.004146145*T**2-4.77E-10*T**3-22590*T**(-1);  2.50600E+03  Y
      -1446776.33+6193.60999*T-787.536383*T*LN(T)+.1735215*T**2
     -7.575759E-06*T**3+5.01742495E+08*T**(-1);  6.00000E+03  N !
 FUNCTION GHSERLI    2.00000E+02  -10583.817+217.637482*T-38.940488*T*LN(T)
     +.035466931*T**2-1.9869816E-05*T**3+159994*T**(-1);  4.53600E+02  Y
      -559579.123+10547.8799*T-1702.88865*T*LN(T)+2.25832944*T**2
     -5.71066077E-04*T**3+33885874*T**(-1);  5.00000E+02  Y
      -9062.994+179.278285*T-31.2283718*T*LN(T)+.002633221*T**2
     -4.38058E-07*T**3-102387*T**(-1);  3.00000E+03  N !
 FUNCTION GHSERMG    2.98150E+02  -8367.34+143.675547*T-26.1849782*T*LN(T)
     +4.858E-04*T**2-1.393669E-06*T**3+78950*T**(-1);  9.23000E+02  Y
      -14130.185+204.716215*T-34.3088*T*LN(T)+1.038192E+28*T**(-9);  
     3.00000E+03  N !
 FUNCTION GHSERMN    2.98150E+02  -8115.28+130.059*T-23.4582*T*LN(T)
     -.00734768*T**2+69827*T**(-1);  1.51900E+03  Y
      -28733.41+312.2648*T-48*T*LN(T)+1.656847E+30*T**(-9);  6.00000E+03  N !
 FUNCTION GHSERMO    2.98150E+02  -7746.302+131.9197*T-23.56414*T*LN(T)
     -.003443396*T**2+5.66283E-07*T**3+65812*T**(-1)-1.30927E-10*T**4;  
     2.89600E+03  Y
      -30556.41+283.559746*T-42.63829*T*LN(T)-4.849315E+33*T**(-9);  
     5.00000E+03  N !
 FUNCTION GHSERNN    2.98150E+02  -3750.675-9.45425*T-12.7819*T*LN(T)
     -.00176686*T**2+2.681E-09*T**3-32374*T**(-1);  9.50000E+02  Y
      -7358.85+17.2003*T-16.3699*T*LN(T)-6.5107E-04*T**2+3.0097E-08*T**3
     +563070*T**(-1);  3.35000E+03  Y
      -16392.8+50.26*T-20.4695*T*LN(T)+2.39754E-04*T**2-8.333E-09*T**3
     +4596375*T**(-1);  6.00000E+03  N !
 FUNCTION GHSERND    2.98150E+02  -8402.93+111.10239*T-27.0858*T*LN(T)
     +5.56125E-04*T**2-2.6923E-06*T**3+34887*T**(-1);  9.00000E+02  Y
      -6984.083+83.662617*T-22.7536*T*LN(T)-.00420402*T**2-1.802E-06*T**3;  
     1.12800E+03  Y
      -225610.846+1673.04075*T-238.182873*T*LN(T)+.078615997*T**2
     -6.048207E-06*T**3+38810350*T**(-1);  1.80000E+03  N !
 FUNCTION GHSERNB    2.98150E+02  -8519.353+142.045475*T-26.4711*T*LN(T)
     +2.03475E-04*T**2-3.5012E-07*T**3+93399*T**(-1);  2.75000E+03  Y
      -37669.3+271.720843*T-41.77*T*LN(T)+1.528238E+32*T**(-9);  6.00000E+03 
      N !
 FUNCTION GHSERNI    2.98150E+02  -5179.159+117.854*T-22.096*T*LN(T)
     -.0048407*T**2;  1.72800E+03  Y
      -27840.655+279.135*T-43.1*T*LN(T)+1.12754E+31*T**(-9);  6.00000E+03  N 
     !
 FUNCTION GHSEROO    2.98150E+02  -3480.87-25.503038*T-11.136*T*LN(T)
     -.005098888*T**2+6.61846E-07*T**3-38365*T**(-1);  1.00000E+03  Y
      -6568.763+12.65988*T-16.8138*T*LN(T)-5.95798E-04*T**2+6.781E-09*T**3
     +262905*T**(-1);  3.30000E+03  Y
      -13986.728+31.259625*T-18.9536*T*LN(T)-4.25243E-04*T**2
     +1.0721E-08*T**3+4383200*T**(-1);  6.00000E+03  N !
 FUNCTION GHSERSI    2.98150E+02  -8162.609+137.236859*T-22.8317533*T*LN(T)
     -.001912904*T**2-3.552E-09*T**3+176667*T**(-1);  1.68700E+03  Y
      -9457.642+167.281367*T-27.196*T*LN(T)-4.20369E+30*T**(-9);  
     3.60000E+03  N !
 FUNCTION GHSERTA    2.98150E+02  -7285.889+119.139858*T-23.7592624*T*LN(T)
     -.002623033*T**2+1.70109E-07*T**3-3293*T**(-1);  1.30000E+03  Y
      -22389.955+243.88676*T-41.137088*T*LN(T)+.006167572*T**2
     -6.55136E-07*T**3+2429586*T**(-1);  2.50000E+03  Y
      +229382.886-722.59722*T+78.5244752*T*LN(T)-.017983376*T**2
     +1.95033E-07*T**3-93813648*T**(-1);  3.25800E+03  Y
      -963392.734+2773.7774*T-337.227976*T*LN(T)+.039791303*T**2
     -9.74251E-07*T**3+5.09949511E+08*T**(-1);  6.00000E+03  N !
 FUNCTION GHSERSN    1.00000E+02  -7958.517+122.765451*T-25.858*T*LN(T)
     +5.1185E-04*T**2-3.192767E-06*T**3+18440*T**(-1);  2.50000E+02  Y
      -5855.135+65.443315*T-15.961*T*LN(T)-.0188702*T**2+3.121167E-06*T**3
     -61960*T**(-1);  5.05080E+02  Y
      +2524.724+4.005269*T-8.2590486*T*LN(T)-.016814429*T**2
     +2.623131E-06*T**3-1081244*T**(-1)-1.2307E+25*T**(-9);  8.00000E+02  Y
      -8256.959+138.99688*T-28.4512*T*LN(T)-1.2307E+25*T**(-9);  3.00000E+03 
      N !
 FUNCTION GHSERTI    2.98150E+02  -8059.921+133.615208*T-23.9933*T*LN(T)
     -.004777975*T**2+1.06716E-07*T**3+72636*T**(-1);  9.00000E+02  Y
      -7811.815+132.988068*T-23.9887*T*LN(T)-.0042033*T**2-9.0876E-08*T**3
     +42680*T**(-1);  1.15500E+03  Y
      +908.837+66.976538*T-14.9466*T*LN(T)-.0081465*T**2+2.02715E-07*T**3
     -1477660*T**(-1);  1.94100E+03  Y
      -124526.786+638.806871*T-87.2182461*T*LN(T)+.008204849*T**2
     -3.04747E-07*T**3+36699805*T**(-1);  4.00000E+03  N !
 FUNCTION GHSERV     2.98150E+02  -7930.43+133.346053*T-24.134*T*LN(T)
     -.003098*T**2+1.2175E-07*T**3+69460*T**(-1);  7.90000E+02  Y
      -7967.842+143.291093*T-25.9*T*LN(T)+6.25E-05*T**2-6.8E-07*T**3;  
     2.18300E+03  Y
      -41689.864+321.140783*T-47.43*T*LN(T)+6.44389E+31*T**(-9);  
     6.00000E+03  N !
 FUNCTION GHSERW     2.98150E+02  -7646.311+130.4*T-24.1*T*LN(T)
     -.001936*T**2+2.07E-07*T**3+44500*T**(-1)-5.33E-11*T**4;  3.69500E+03  Y
      -82868.801+389.362335*T-54*T*LN(T)+1.528621E+33*T**(-9);  6.00000E+03  
     N !
 FUNCTION GHSERY     2.98150E+02  -7347.055+117.532124*T-23.8685*T*LN(T)
     -.003845475*T**2+1.1125E-08*T**3-16486*T**(-1);  1.50000E+03  Y
      -15802.62+229.831717*T-40.2851*T*LN(T)+.0068095*T**2-1.14182E-06*T**3; 
      1.79900E+03  Y
      -72946.216+393.885821*T-58.2078433*T*LN(T)+.002436461*T**2
     -7.2627E-08*T**3+20866567*T**(-1);  3.70000E+03  N !
 FUNCTION GHSERZN    2.98150E+02  -7285.787+118.470069*T-23.701314*T*LN(T)
     -.001712034*T**2-1.264963E-06*T**3;  6.92680E+02  Y
      -11070.559+172.34566*T-31.38*T*LN(T)+4.70514E+26*T**(-9);  1.70000E+03 
      N !
 FUNCTION GHSERZR    1.30000E+02  -7827.595+125.64905*T-24.1618*T*LN(T)
     -.00437791*T**2+34971*T**(-1);  2.12800E+03  Y
      -26085.921+262.724183*T-42.144*T*LN(T)-1.342895E+31*T**(-9);  
     6.00000E+03  N !
 FUNCTION F57T       2.98130E+02  +323947.58-25.1480943*T-20.859*T*LN(T)
     +4.5665E-05*T**2-3.942E-09*T**3-24275.5*T**(-1);  4.30000E+03  Y
      +342017.233-54.0526109*T-17.7891*T*LN(T)+6.822E-05*T**2
     -1.91111667E-08*T**3-14782200*T**(-1);  8.20000E+03  Y
      +542396.07-411.214335*T+22.2419*T*LN(T)-.00349619*T**2+4.0491E-08*T**3
     -2.0366965E+08*T**(-1);  1.00000E+04  N !
 FUNCTION F346T      2.98130E+02  +496860.479+26.9906218*T-40.26491*T*LN(T)
     +8.38355E-04*T**2-1.4850915E-07*T**3+59807.45*T**(-1);  1.40000E+03  Y
      +497564.417+17.7705096*T-38.89205*T*LN(T)-2.1144975E-04*T**2
     -1.0357225E-08*T**3+2845.8125*T**(-1);  3.00000E+03  N !
 FUNCTION F8433T     2.98130E+02  +466676.993-100677.291*T**(-1)
     -25.5431898*T-23.4738718*T*LN(T)+.002633828*T**2-4.85754729E-07*T**3;  
     1.80000E+03  Y
      +488277.593-4788253.28*T**(-1)-166.8867*T-4.45587632*T*LN(T)
     -.00492684828*T**2+8.4922648E-08*T**3;  3.90000E+03  Y
      +485410.035+2258606.88*T**(-1)-190.892757*T-.994064008*T*LN(T)
     -.00631737976*T**2+1.55685245E-07*T**3;  6.00000E+03  N !
 FUNCTION F1559T     2.98150E+02  +564913.402-13.9693124*T
     -20.8085801*T*LN(T)+1.6646044E-05*T**2;  7.00000E+02  Y
      +564920.973-14.1156663*T-20.786112*T*LN(T);  2.80000E+03  Y
      +565086.023-15.0515115*T-20.6682069*T*LN(T)-2.10566076E-05*T**2;  
     4.07500E+03  N !
 FUNCTION F1786T     2.98150E+02  +469920.773-69873.2184*T**(-1)
     -57.4937871*T-22.339422*T*LN(T)-.0105569014*T**2+1.41488236E-06*T**3;  
     1.00000E+03  Y
      +462619.822+719942.972*T**(-1)+28.1899597*T-35.0100802*T*LN(T)
     -7.99851096E-04*T**2+1.10267925E-08*T**3;  3.50000E+03  Y
      +449529.29+7491452*T**(-1)+65.7741362*T-39.4662494*T*LN(T)
     -1.95814338E-04*T**2-9.14385307E-10*T**3;  6.00000E+03  N !
 FUNCTION F1835T     2.98150E+02  +824867.604-136465.972*T**(-1)
     -125.766398*T-8.16800062*T*LN(T)-.0430888612*T**2+1.00098016E-05*T**3;  
     5.50000E+02  Y
      +809306.765+980387.558*T**(-1)+132.643168*T-48.851589*T*LN(T)
     +.00423205742*T**2-3.22751598E-07*T**3;  2.15000E+03  Y
      +826793.716-3665441.32*T**(-1)+32.6504991*T-35.6295549*T*LN(T)
     -4.58209505E-04*T**2+1.70149264E-10*T**3;  6.00000E+03  N !
 FUNCTION F7202T     2.98150E+02  +466446.153+2788.78662*T**(-1)
     -13.2660528*T-20.8939295*T*LN(T)+8.4552092E-05*T**2-1.00186856E-08*T**3;
       2.95000E+03  Y
      +481259.023-7559107.28*T**(-1)-52.4348889*T-16.3761342*T*LN(T)
     -2.28373808E-04*T**2-2.78997209E-08*T**3;  6.00000E+03  N !
 FUNCTION F7307T     2.98150E+02  -8000.12601-38326.6952*T**(-1)
     -8.70687347*T-27.2233215*T*LN(T)-.00125991746*T**2-5.39381057E-07*T**3; 
      8.00000E+02  Y
      -10569.6428+416969.072*T**(-1)+2.88463409*T-28.4238366*T*LN(T)
     -.00318927492*T**2+2.06637997E-07*T**3;  2.20000E+03  Y
      -22468.6452+3427511.88*T**(-1)+71.9269909*T-37.5501448*T*LN(T)
     -6.15899444E-06*T**2-4.22547041E-09*T**3;  6.00000E+03  N !
 FUNCTION F7363T     2.98150E+02  +403075.636+55714.144*T**(-1)-14.3245228*T
     -29.5595416*T*LN(T)-.02413122*T**2+3.6156036E-06*T**3;  8.00000E+02  Y
      +388937.207+1536448.48*T**(-1)+158.809275*T-55.404528*T*LN(T)
     -.0026570492*T**2+1.9365644E-07*T**3;  2.00000E+03  Y
      +380898.006+3336949.2*T**(-1)+210.207464*T-62.295576*T*LN(T)
     +6.5726456E-06*T**2-7.868012E-10*T**3;  6.00000E+03  N !
 FUNCTION F1780T     2.98150E+02  -254468.017+68652.118*T**(-1)-2.01673169*T
     +2.02130295*T*LN(T)-.0466239856*T**2+8.4686252E-06*T**3;  7.00000E+02  Y
      -252837.33-464549.52*T**(-1)+31.8460931*T-4.77377664*T*LN(T)
     -.0296618404*T**2+3.442909E-06*T**3;  1.20000E+03  Y
      -305197.766+7712952.96*T**(-1)+485.722721*T-68.6456328*T*LN(T)
     +.00556601704*T**2-2.64600344E-07*T**3;  1.90000E+03  Y
      -276126.047+17.7193237*T**(-1)+333.505404*T-48.9528*T*LN(T)
     -4.05854276E-09*T**2+3.84088411E-13*T**3;  6.00000E+03  N !
 FUNCTION GBCCAL     2.98150E+02  +10083-4.813*T+GHSERAL#;   6.00000E+03   N 
     !
 FUNCTION GBCCCU     2.98150E+02  +4017-1.255*T+GHSERCU#;   6.00000E+03   N !
 FUNCTION GBCCHF     2.98150E+02  +5370.703+103.836026*T-22.8995*T*LN(T)
     -.004206605*T**2+8.71923E-07*T**3-22590*T**(-1)-1.446E-10*T**4;  
     2.50600E+03  Y
      +1912456.77-8624.20573*T+1087.61412*T*LN(T)-.286857065*T**2
     +1.3427829E-05*T**3-6.10085091E+08*T**(-1);  6.00000E+03  N !
 FUNCTION GBCCMG     2.98150E+02  +3100-2.1*T+GHSERMG#;   6.00000E+03   N !
 FUNCTION GBCCMN     2.98150E+02  -3235.3+127.85*T-23.7*T*LN(T)
     -.00744271*T**2+60000*T**(-1);  1.51900E+03  Y
      -23188.83+307.7043*T-48*T*LN(T)+1.265152E+30*T**(-9);  6.00000E+03  N !
 FUNCTION GBCCNI     2.98150E+02  +8715.084-3.556*T+GHSERNI#;   6.00000E+03  
      N !
 FUNCTION GBCCSI     2.98150E+02  +47000-22.5*T+GHSERSI#;   6.00000E+03   N !
 FUNCTION GBCCTI     2.98150E+02  -1272.064+134.71418*T-25.5768*T*LN(T)
     -6.63845E-04*T**2-2.78803E-07*T**3+7208*T**(-1);  1.15500E+03  Y
      +6667.385+105.366379*T-22.3771*T*LN(T)+.00121707*T**2-8.4534E-07*T**3
     -2002750*T**(-1);  1.94100E+03  Y
      +26483.26-182.426471*T+19.0900905*T*LN(T)-.02200832*T**2
     +1.228863E-06*T**3+1400501*T**(-1);  4.00000E+03  N !
 FUNCTION GBCCZN     2.98150E+02  +2886.96-2.5104*T+GHSERZN#;   6.00000E+03  
      N !
 FUNCTION GFCCCR     2.98150E+02  +7284+.163*T+GHSERCR#;   6.00000E+03   N !
 FUNCTION GFCCHF     2.98150E+02  +10000-2.2*T+GHSERHF#;   6.00000E+03   N !
 FUNCTION GFCCMO     2.98150E+02  +7453.698+132.5497*T-23.56414*T*LN(T)
     -.003443396*T**2+5.66283E-07*T**3+65812*T**(-1)-1.30927E-10*T**4;  
     2.89600E+03  Y
      -15356.41+284.189746*T-42.63829*T*LN(T)-4.849315E+33*T**(-9);  
     5.00000E+03  N !
 FUNCTION GFCCMN     2.98150E+02  -3439.3+131.884*T-24.5177*T*LN(T)
     -.006*T**2+69600*T**(-1);  1.51900E+03  Y
      -26070.1+309.6664*T-48*T*LN(T)+3.86196E+30*T**(-9);  6.00000E+03  N !
 FUNCTION GFCCNB     2.98150E+02  +13500+1.7*T+GHSERNB#;   6.00000E+03   N !
 FUNCTION GFCCTA     2.98150E+02  +16000+1.7*T+GHSERTA#;   6.00000E+03   N !
 FUNCTION GFCCTI     2.98150E+02  +6000-.1*T+GHSERTI#;   6.00000E+03   N !
 FUNCTION GFCCV      2.98150E+02  +7500+1.7*T+GHSERV#;   6.00000E+03   N !
 FUNCTION GFCCW      2.98150E+02  +11653.689+131.03*T-24.1*T*LN(T)
     -.001936*T**2+2.07E-07*T**3+44500*T**(-1)-5.33E-11*T**4;  3.69500E+03  Y
      -63568.801+389.992335*T-54*T*LN(T)+1.528621E+33*T**(-9);  6.00000E+03  
     N !
 FUNCTION GFCCZN     2.98150E+02  +2969.82-1.56968*T+GHSERZN#;   6.00000E+03 
       N !
 FUNCTION GHCPAL     2.98150E+02  +5481-1.8*T+GHSERAL#;   6.00000E+03   N !
 FUNCTION GHCPCR     2.98150E+02  +4438+GHSERCR#;   6.00000E+03   N !
 FUNCTION GHCPMO     2.98150E+02  +3803.698+131.9197*T-23.56414*T*LN(T)
     -.003443396*T**2+5.66283E-07*T**3+65812*T**(-1)-1.30927E-10*T**4;  
     2.89600E+03  Y
      -19006.41+283.559746*T-42.63829*T*LN(T)-4.849315E+33*T**(-9);  
     5.00000E+03  N !
 FUNCTION GHCPNB     2.98150E+02  +10000+2.4*T+GHSERNB#;  5.00000E+03  N !
 FUNCTION GHCPTA     2.98150E+02  +12000+2.4*T+GHSERTA#;   6.00000E+03   N !
 FUNCTION GHCPV      2.98150E+02  +4000+2.4*T+GHSERV#;   6.00000E+03   N !
 FUNCTION GHCPW      2.98150E+02  +7103.689+130.4*T-24.1*T*LN(T)
     -.001936*T**2+2.07E-07*T**3+44500*T**(-1)-5.33E-11*T**4;  3.69500E+03  Y
      -68118.801+389.362335*T-54*T*LN(T)+1.528621E+33*T**(-9);  6.00000E+03  
     N !
 FUNCTION GLIQAL     2.98150E+02  +11005.029-11.841867*T+7.934E-20*T**7
     +GHSERAL#;  9.33470E+02  Y
      +10482.382-11.253974*T+1.231E+28*T**(-9)+GHSERAL#;  6.00000E+03  N !
 FUNCTION GLIQCC     2.98150E+02  +117369-24.63*T+GHSERCC#;   6.00000E+03   
     N !
 FUNCTION GLIQCE     2.98150E+02  +4117.865-11.423898*T-7.5383948*T*LN(T)
     -.02936407*T**2+4.827734E-06*T**3-198834*T**(-1);  1.00000E+03  Y
      -6730.605+183.023193*T-37.6978*T*LN(T);  4.00000E+03  N !
 FUNCTION GLIQSN     1.00000E+02  -855.425+108.677684*T-25.858*T*LN(T)
     +5.1185E-04*T**2-3.192767E-06*T**3+18440*T**(-1)+1.47031E-18*T**7;  
     2.50000E+02  Y
      +1247.957+51.355548*T-15.961*T*LN(T)-.0188702*T**2+3.121167E-06*T**3
     -61960*T**(-1)+1.47031E-18*T**7;  5.05080E+02  Y
      +9496.31-9.809114*T-8.2590486*T*LN(T)-.016814429*T**2
     +2.623131E-06*T**3-1081244*T**(-1);  8.00000E+02  Y
      -1285.372+125.182498*T-28.4512*T*LN(T);  3.00000E+03  N !
 FUNCTION GLIQTA     2.98150E+02  +29160.975-7.578729*T+GHSERTA#;  
     1.00000E+03  Y
      +51170.228-181.121652*T+23.7872147*T*LN(T)-.009707033*T**2
     +4.4449E-07*T**3-3520045*T**(-1)+GHSERTA#;  1.30000E+03  Y
      +66274.294-305.868555*T+41.1650403*T*LN(T)-.018497638*T**2
     +1.269735E-06*T**3-5952924*T**(-1)+GHSERTA#;  2.50000E+03  Y
      -185498.547+660.615425*T-78.4965229*T*LN(T)+.00565331*T**2
     +4.19566E-07*T**3+90290310*T**(-1)+GHSERTA#;  3.29000E+03  Y
      +1036069.47-2727.38037*T+320.319132*T*LN(T)-.043117795*T**2
     +1.055148E-06*T**3-5.54714342E+08*T**(-1)+GHSERTA#;  6.00000E+03  N !
 FUNCTION GLIQTI     2.98150E+02  +12194.415-6.980938*T+GHSERTI#;  
     1.30000E+03  Y
      +368610.36-2620.99904*T+357.005867*T*LN(T)-.155262855*T**2
     +1.2254402E-05*T**3-65556856*T**(-1)+GHSERTI#;  1.94100E+03  Y
      +104639.72-340.070171*T+40.9282461*T*LN(T)-.008204849*T**2
     +3.04747E-07*T**3-36699805*T**(-1)+GHSERTI#;  6.00000E+03  N !
 FUNCTION GLIQV      2.98150E+02  +20764.117-9.455552*T-5.19136E-22*T**7
     +GHSERV#;  7.90000E+02  Y
      +20764.117-9.455552*T-5.19136E-22*T**7+GHSERV#;  2.18300E+03  Y
      +22072.354-10.0848*T-6.44389E+31*T**(-9)+GHSERV#;  6.00000E+03  N !
 FUNCTION GLIQZR     1.30000E+02  +18147.703-9.080762*T+1.6275E-22*T**7
     +GHSERZR#;  2.12800E+03  Y
      +17804.649-8.91153*T+1.343E+31*T**(-9)+GHSERZR#;  6.00000E+03  N !
 FUNCTION ALCRW1     2.98150E+02  -1300*R#;   6.00000E+03   N !
 FUNCTION ALFEW1     2.98150E+02  +860*R#;   6.00000E+03   N !
 FUNCTION LALFEB0    2.98150E+02  -30740+7.9972*T+ALFEW1#;   6.00000E+03   N 
     !
 FUNCTION LALFEB1    2.98150E+02  2945.2;   6.00000E+03   N !
 FUNCTION ETCALFE    2.98150E+02  63;   6.00000E+03   N !
 FUNCTION W1         2.98150E+02  +860*R#;   6.00000E+03   N !
 FUNCTION L0BCC      2.98150E+02  -30740.04+7.9972*T+W1#;   6.00000E+03   N !
 FUNCTION L1BCC      2.98150E+02  368.15;   6.00000E+03   N !
 FUNCTION ALNBB2     2.98150E+02  -8650+T;   6.00000E+03   N !
 FUNCTION ALTIB2     2.98150E+02  -8750+1.25*T;   6.00000E+03   N !
 FUNCTION U1ALTI     2.98150E+02  -16755+3.5*T;   6.00000E+03   N !
 FUNCTION GAL2TI     2.98150E+02  -121500+31.2*T;   6.00000E+03   N !
 FUNCTION LAVAL2TI   2.98150E+02  17000;   6.00000E+03   N !
 FUNCTION ALVB2      2.98150E+02  -700*R#;   6.00000E+03   N !
 FUNCTION GHSERTIC   2.98150E+02  -207709+307.438*T-48.0195*T*LN(T)
     -.00272*T**2+819000*T**(-1)-2.03E+09*T**(-3);   6.00000E+03   N !
 FUNCTION GLAVCR     2.98150E+02  +5000+GHSERCR#;   6.00000E+03   N !
 FUNCTION GLAVTI     2.98150E+02  +5000+GHSERTI#;   6.00000E+03   N !
 FUNCTION CRTIW1     298.15 0.0; 6000.00  N !
 FUNCTION U1CRTI     2.98150E+02  1E-04;   6.00000E+03   N !
 FUNCTION L0         2.98150E+02  -51595.87+13.06392*T;   6.00000E+03   N !
 FUNCTION P1         2.98150E+02  -3085;   6.00000E+03   N !
 FUNCTION GCZBCC     2.98150E+02  +.5*L0#+2*P1#+GBCCCU#+GBCCZN#;   
     6.00000E+03   N !
 FUNCTION L0CZ       2.98150E+02  -12898.97+3.26598*T;   6.00000E+03   N !
 FUNCTION L1CZ       2.98150E+02  +945.265-.80679*T;   6.00000E+03   N !
 FUNCTION L2CZ       2.98150E+02  +1921.485-1.86969*T;   6.00000E+03   N !
 FUNCTION A1CZ       2.98150E+02  -3085;   6.00000E+03   N !
 FUNCTION K4         2.98150E+02  -11552.71-1.67824*T;   6.00000E+03   N !
 FUNCTION K5         2.98150E+02  +15732.3-10.26575*T;   6.00000E+03   N !
 FUNCTION K6         2.98150E+02  +37289.2-13.05259*T;   6.00000E+03   N !
 FUNCTION FSL0BCC    2.98150E+02  -27809+11.62*T;   6.00000E+03   N !
 FUNCTION FESIW1     2.98150E+02  +1260*R#;   6.00000E+03   N !
 FUNCTION FSL1BCC    2.98150E+02  -11544;   6.00000E+03   N !
 FUNCTION FSL2BCC    2.98150E+02  3890;   6.00000E+03   N !
 FUNCTION ETCFESI    2.98150E+02  63;   6.00000E+03   N !
 FUNCTION GHSERTIN   2.98150E+02  -357905+330.498*T-52.4587*T*LN(T)
     -9.28E-04*T**2+871000*T**(-1)+1.48976561E-08*T**3;   6.00000E+03   N !
 FUNCTION NBTIB2     2.98150E+02  5500;   6.00000E+03   N !
 FUNCTION TATIB2     2.98150E+02  2500;   6.00000E+03   N !
 FUNCTION QPHA       2.98150E+02  -221500+18.46*T;   6.00000E+03   N !
 FUNCTION SPHA       2.98150E+02  -63200+4.13*T;   6.00000E+03   N !
 FUNCTION T3CU       2.98150E+02  -220000+440*T;   6.00000E+03   N !
 FUNCTION T2AL3CU    2.98150E+02  243000;   6.00000E+03   N !
 FUNCTION TRK        2.98150E+02  -4649190+2261.86*T;   6.00000E+03   N !
 FUNCTION T2ALRK     298.15 0.0; 6000.00  N !
 FUNCTION T3CUMGRK   2.98150E+02  -220000;   6.00000E+03   N !
 FUNCTION VPHA       2.98150E+02  -274527.45+13*T;   6.00000E+03   N !
 FUNCTION ALTAB2     298.15 0.0; 6000.00  N !
 FUNCTION UN_ASS 298.15 0; 300 N !
$
 TYPE_DEFINITION % SEQ *!
 DEFINE_SYSTEM_DEFAULT ELEMENT 2 !
 DEFAULT_COMMAND DEF_SYS_ELEMENT VA !
$
$
 PHASE LIQUID:L %  1  1.0  !
    CONSTITUENT LIQUID:L :AL,B,C,CE,CU,FE,HF,LI,MG,MN,N,ND,NI,SI,SN,TA,TI,V,
    Y,ZN,ZR :  !
$
   PARAMETER G(LIQUID,AL;0)  2.98150E+02  +GLIQAL#;   6.00000E+03   N REF0 !
   PARAMETER G(LIQUID,B;0)  2.98150E+02  +40723.275+86.843839*T
  -15.6641*T*LN(T)-.006864515*T**2+6.18878E-07*T**3+370843*T**(-1);  
  5.00000E+02  Y
   +41119.703+82.101722*T-14.9827763*T*LN(T)-.007095669*T**2
  +5.07347E-07*T**3+335484*T**(-1);  2.34800E+03  Y
   +28842.012+200.94731*T-31.4*T*LN(T);  6.00000E+03  N REF0 !
   PARAMETER G(LIQUID,C;0)  2.98150E+02  +117369-24.63*T+GHSERCC#;   
  6.00000E+03   N REF0 !
   PARAMETER G(LIQUID,CE;0)  2.98150E+02  +GLIQCE#;  4.00000E+03  N REF0 !
   PARAMETER G(LIQUID,CU;0)  2.98150E+02  +5194.277+120.973331*T
  -24.112392*T*LN(T)-.00265684*T**2+1.29223E-07*T**3+52478*T**(-1)
  -5.8489E-21*T**7;  1.35777E+03  Y
   -46.545+173.881484*T-31.38*T*LN(T);  3.20000E+03  N REF0 !
   PARAMETER G(LIQUID,FE;0)  2.98150E+02  +12040.17-6.55843*T
  -3.67516E-21*T**7+GHSERFE#;  1.81100E+03  Y
   +14544.751-8.01055*T+GHSERFE#-2.29603E+31*T**(-9);  6.00000E+03  N REF0 !
   PARAMETER G(LIQUID,HF;0)  2.98150E+02  +20414.959+99.790933*T
  -22.7075*T*LN(T)-.004146145*T**2-4.77E-10*T**3-22590*T**(-1);  1.00000E+03 
   Y
   +49731.499-149.91739*T+12.116812*T*LN(T)-.021262021*T**2
  +1.376466E-06*T**3-4449699*T**(-1);  2.50600E+03  Y
   -4247.217+265.470523*T-44*T*LN(T);  6.00000E+03  N REF0 !
   PARAMETER G(LIQUID,LI;0)  2.00000E+02  -7883.612+211.841861*T
  -38.940488*T*LN(T)+.035466931*T**2-1.9869816E-05*T**3+159994*T**(-1);  
  2.50000E+02  Y
   +12015.027-362.187078*T+61.6104424*T*LN(T)-.182426463*T**2
  +6.3955671E-05*T**3-559968*T**(-1);  4.53600E+02  Y
   -6057.31+172.652183*T-31.2283718*T*LN(T)+.002633221*T**2-4.38058E-07*T**3
  -102387*T**(-1);  3.00000E+03  N REF0 !
   PARAMETER G(LIQUID,MG;0)  2.98150E+02  +8202.243-8.83693*T+GHSERMG#
  -8.0176E-20*T**7;  9.23000E+02  Y
   +8690.316-9.392158*T+GHSERMG#-1.038192E+28*T**(-9);  6.00000E+03  N REF0 !
   PARAMETER G(LIQUID,MN;0)  2.98150E+02  +17859.91-12.6208*T
  -4.41929E-21*T**7+GHSERMN#;  1.51900E+03  Y
   +18739.51-13.2288*T-1.656847E+30*T**(-9)+GHSERMN#;  6.00000E+03  N REF0 !
   PARAMETER G(LIQUID,N;0)  2.98150E+02  +29950+59.02*T+GHSERNN#;   
  6.00000E+03   N REF0 !
   PARAMETER G(LIQUID,ND;0)  2.98150E+02  +5350.01-86.593963*T
  +5.357301*T*LN(T)-.046955463*T**2+6.860782E-06*T**3-374380*T**(-1);  
  1.12800E+03  Y
   -16335.232+268.625903*T-48.7854*T*LN(T);  1.80000E+03  N REF0 !
   PARAMETER G(LIQUID,NI;0)  2.98150E+02  +16414.686-9.397*T
  -3.82318E-21*T**7+GHSERNI#;  1.72800E+03  Y
   +18290.88-10.537*T-1.12754E+31*T**(-9)+GHSERNI#;  6.00000E+03  N REF0 !
   PARAMETER G(LIQUID,SI;0)  2.98150E+02  +50696.4-30.0994*T
  +2.09307E-21*T**7+GHSERSI#;  1.68700E+03  Y
   +49828.2-29.5591*T+4.20369E+30*T**(-9)+GHSERSI#;  6.00000E+03  N REF0 !
   PARAMETER G(LIQUID,SN;0)  1.00000E+02  +GLIQSN#;  3.00000E+03  N REF0 !
   PARAMETER G(LIQUID,TA;0)  2.98150E+02  +GLIQTA#;   6.00000E+03   N REF0 !
   PARAMETER G(LIQUID,TI;0)  2.98150E+02  +GLIQTI#;   6.00000E+03   N REF0 !
   PARAMETER G(LIQUID,V;0)  2.98150E+02  +GLIQV#;   6.00000E+03   N REF0 !
   PARAMETER G(LIQUID,Y;0)  2.98150E+02  +3934.121+59.921688*T
  -14.8146562*T*LN(T)-.015623487*T**2+1.442946E-06*T**3-140695*T**(-1);  
  1.79900E+03  Y
   -13337.609+258.004539*T-43.0952*T*LN(T);  3.70000E+03  N REF0 !
   PARAMETER G(LIQUID,ZN;0)  2.98150E+02  -128.574+108.177079*T
  -23.701314*T*LN(T)-.001712034*T**2-1.264963E-06*T**3-3.58958E-19*T**7;  
  6.92680E+02  Y
   -3620.391+161.608594*T-31.38*T*LN(T);  1.70000E+03  N REF0 !
   PARAMETER G(LIQUID,ZR;0)  2.98150E+02  +GLIQZR#;   6.00000E+03   N REF0 !
   PARAMETER G(LIQUID,AL,B;0)  2.98150E+02  -12671.16+1.81016*T;   
  6.00000E+03   N REF0 !
   PARAMETER G(LIQUID,AL,B;1)  2.98150E+02  31988.28;   6.00000E+03   N REF0 !
   PARAMETER G(LIQUID,AL,B;2)  2.98150E+02  -15873.74;   6.00000E+03   N 
  REF0 !
   PARAMETER G(LIQUID,AL,C;0)  2.98150E+02  +40861.02-33.21138*T;   
  6.00000E+03   N REF0 !
   PARAMETER G(LIQUID,AL,CE;0)  2.98150E+02  -134212.46+52.8189*T
  -13295726*T**(-1);   6.00000E+03   N REF0 !
   PARAMETER G(LIQUID,AL,CE;1)  2.98150E+02  -19162.82-4.663728*T
  -10415657*T**(-1);   6.00000E+03   N REF0 !
   PARAMETER G(LIQUID,AL,CU;0)  2.98150E+02  -66622+8.1*T;   6.00000E+03   N 
  REF0 !
   PARAMETER G(LIQUID,AL,CU;1)  2.98150E+02  +46800-90.8*T+10*T*LN(T);   
  6.00000E+03   N REF0 !
   PARAMETER G(LIQUID,AL,CU;2)  2.98150E+02  -2812;   6.00000E+03   N REF0 !
   PARAMETER G(LIQUID,AL,CU,LI;0)  2.98150E+02  -100000;   6.00000E+03   N 
  REF0 !
   PARAMETER G(LIQUID,AL,CU,ZN;0)  2.98150E+02  39176.114;   6.00000E+03   N 
  REF0 !
   PARAMETER G(LIQUID,AL,CU,ZN;1)  2.98150E+02  -130184.11;   6.00000E+03   
  N REF0 !
   PARAMETER G(LIQUID,AL,CU,ZN;2)  2.98150E+02  35855.929;   6.00000E+03   N 
  REF0 !
   PARAMETER G(LIQUID,AL,FE;0)  2.98150E+02  -91976.5+22.1314*T;   
  6.00000E+03   N REF0 !
   PARAMETER G(LIQUID,AL,FE;1)  2.98150E+02  -5672.58+4.8728*T;   
  6.00000E+03   N REF0 !
   PARAMETER G(LIQUID,AL,FE;2)  2.98150E+02  121.9;   6.00000E+03   N REF0 !
   PARAMETER G(LIQUID,AL,LI;0)  2.98150E+02  -41500+20.96*T;   6.00000E+03   
  N REF0 !
   PARAMETER G(LIQUID,AL,LI;1)  2.98150E+02  +10000-5.8*T;   6.00000E+03   N 
  REF0 !
   PARAMETER G(LIQUID,AL,LI;2)  2.98150E+02  +15902-9.368*T;   6.00000E+03   
  N REF0 !
   PARAMETER G(LIQUID,AL,LI;3)  2.98150E+02  -250;   6.00000E+03   N REF0 !
   PARAMETER G(LIQUID,AL,MG;0)  2.98150E+02  -12000+8.566*T;   6.00000E+03   
  N REF0 !
   PARAMETER G(LIQUID,AL,MG;1)  2.98150E+02  +1894-3*T;   6.00000E+03   N 
  REF0 !
   PARAMETER G(LIQUID,AL,MG;2)  2.98150E+02  2000;   6.00000E+03   N REF0 !
   PARAMETER G(LIQUID,AL,MG,SI;0)  2.98150E+02  +4125.86-.51573*T;   
  6.00000E+03   N REF0 !