
$ Database file written 12- 7-15
$
ELEMENT /-   ELECTRON_GAS              1.0000E-05  1.0000E-05  1.0000E-05!
 ELEMENT VA   VACUUM                    1.0000E-05  1.0000E-05  1.0000E-05!
 ELEMENT AG   FCC_A1                    1.0787E+02  5.7446E+03  4.2551E+01!
 ELEMENT SN   BCT_A5                    1.1871E+02  6.3220E+03  5.1195E+01!
 ELEMENT ZN   HCP_A3                    6.5390E+01  5.6568E+03  4.1631E+01!


 FUNCTION GHSERAG    2.98140E+02  -7209.512+118.202013*T-23.8463314*T*LN(T)
     -.001790585*T**2-3.98587E-07*T**3-12011*T**(-1);  1.23493E+03  Y
      -15095.252+190.266404*T-33.472*T*LN(T)+1.411773E+29*T**(-9);  
     3.00000E+03  N !
FUNCTION GLIQAG    2.98140E+02  +3815.564+109.310993*T
  -23.8463314*T*LN(T)-.001790585*T**2-3.98587E-07*T**3-12011*T**(-1)
  -1.033905E-20*T**7;  1.23493E+03  Y
   -3587.111+180.964656*T-33.472*T*LN(T);  3.00000E+03  N REF:0 !
FUNCTION GBCCAG     2.98140E+02  -3809.512+117.152013*T-23.8463314*T*LN(T)
     -.001790585*T**2-3.98587E-07*T**3-12011*T**(-1);  1.23493E+03  Y
      -11695.252+189.216404*T-33.472*T*LN(T)+1.411773E+29*T**(-9);  
     3.00000E+03  N !
 FUNCTION GHCPAG     2.98140E+02  -6909.512+118.502013*T-23.8463314*T*LN(T)
     -.001790585*T**2-3.98587E-07*T**3-12011*T**(-1);  1.23493E+03  Y
      -14795.252+190.566404*T-33.472*T*LN(T)+1.411773E+29*T**(-9);  
     3.00000E+03  N !
FUNCTION GBCTAG  2.98140E+02  -3025.412+118.202013*T
  -23.8463314*T*LN(T)-.001790585*T**2-3.98587E-07*T**3-12011*T**(-1);  
  1.23493E+03  Y
   -10911.152+190.266404*T-33.472*T*LN(T)+1.411773E+29*T**(-9);  3.00000E+03 
   N REF:0 !
FUNCTION GFCCAG  2.98140E+02  -7209.512+118.202013*T
  -23.8463314*T*LN(T)-.001790585*T**2-3.98587E-07*T**3-12011*T**(-1);  
  1.23493E+03  Y
   -15095.252+190.266404*T-33.472*T*LN(T)+1.411773E+29*T**(-9);  3.00000E+03 
   N REF:0 !

   FUNCTION GHSERSN    1.00000E+02  -7958.517+122.765451*T-25.858*T*LN(T)
     +5.1185E-04*T**2-3.192767E-06*T**3+18440*T**(-1);  2.50000E+02  Y
      -5855.135+65.443315*T-15.961*T*LN(T)-.0188702*T**2+3.121167E-06*T**3
     -61960*T**(-1);  5.05080E+02  Y
      +2524.724+4.005269*T-8.2590486*T*LN(T)-.016814429*T**2
     +2.623131E-06*T**3-1081244*T**(-1)-1.2307E+25*T**(-9);  8.00000E+02  Y
      -8256.959+138.99688*T-28.4512*T*LN(T)-1.2307E+25*T**(-9);  3.00000E+03 
      N !
FUNCTION GLIQSN    1.00000E+02  -855.425+108.677684*T
  -25.858*T*LN(T)+5.1185E-04*T**2-3.192767E-06*T**3+18440*T**(-1)
  +1.47031E-18*T**7;  2.50000E+02  Y
   +1247.957+51.355548*T-15.961*T*LN(T)-.0188702*T**2+3.121167E-06*T**3
  -61960*T**(-1)+1.47031E-18*T**7;  5.05080E+02  Y
   +9496.31-9.809114*T-8.2590486*T*LN(T)-.016814429*T**2+2.623131E-06*T**3
  -1081244*T**(-1);  8.00000E+02  Y
   -1285.372+125.182498*T-28.4512*T*LN(T);  3.00000E+03  N REF:0 !
FUNCTION GHCPSN     2.98140E+02  -1955.135+57.797315*T
  -15.961*T*LN(T)-.0188702*T**2+3.121167E-06*T**3-61960*T**(-1);  
  5.05080E+02  Y
   +6424.724-3.640731*T-8.2590486*T*LN(T)-.016814429*T**2+2.623131E-06*T**3
  -1081244*T**(-1)-1.2307E+25*T**(-9);  8.00000E+02  Y
   -4356.959+131.35088*T-28.4512*T*LN(T)-1.2307E+25*T**(-9);  3.00000E+03  N 
  REF:0 !

FUNCTION GBCCSN     1.00000E+02  -3558.517+116.765451*T-25.858*T*LN(T)
     +5.1185E-04*T**2-3.192767E-06*T**3+18440*T**(-1);  2.50000E+02  Y
      -1455.135+59.443315*T-15.961*T*LN(T)-.0188702*T**2+3.121167E-06*T**3
     -61960*T**(-1);  5.05080E+02  Y
      +6924.724-1.994731*T-8.2590486*T*LN(T)-.016814429*T**2
     +2.623131E-06*T**3-1081244*T**(-1)-1.2307E+25*T**(-9);  8.00000E+02  Y
      -3856.959+132.99688*T-28.4512*T*LN(T)-1.2307E+25*T**(-9);  3.00000E+03 
      N !
 FUNCTION GFCCSN     2.98140E+02  -345.135+56.983315*T-15.961*T*LN(T)
     -.0188702*T**2+3.121167E-06*T**3-61960*T**(-1);  5.05080E+02  Y
      +8034.724-4.454731*T-8.2590486*T*LN(T)-.016814429*T**2
     +2.623131E-06*T**3-1081244*T**(-1)-1.2307E+25*T**(-9);  8.00000E+02  Y
      -2746.959+130.53688*T-28.4512*T*LN(T)-1.2307E+25*T**(-9);  3.00000E+03 
      N !
FUNCTION GBCTSN    1.00000E+02  -7958.517+122.765451*T
  -25.858*T*LN(T)+5.1185E-04*T**2-3.192767E-06*T**3+18440*T**(-1);  
  2.50000E+02  Y
   -5855.135+65.443315*T-15.961*T*LN(T)-.0188702*T**2+3.121167E-06*T**3
  -61960*T**(-1);  5.05080E+02  Y
   +2524.724+4.005269*T-8.2590486*T*LN(T)-.016814429*T**2+2.623131E-06*T**3
  -1081244*T**(-1)-1.2307E+25*T**(-9);  8.00000E+02  Y
   -8256.959+138.99688*T-28.4512*T*LN(T)-1.2307E+25*T**(-9);  3.00000E+03  N 
  REF:0 !
 FUNCTION GHSERZN    2.98140E+02  -7285.787+118.470069*T-23.701314*T*LN(T)
     -.001712034*T**2-1.264963E-06*T**3;  6.92680E+02  Y
      -11070.559+172.34566*T-31.38*T*LN(T)+4.70514E+26*T**(-9);  1.70000E+03 
      N !
FUNCTION GLIQZN   2.98140E+02  -128.574+108.177079*T
  -23.701314*T*LN(T)-.001712034*T**2-1.264963E-06*T**3-3.58958E-19*T**7;  
  6.92680E+02  Y
   -3620.391+161.608594*T-31.38*T*LN(T);  1.70000E+03  N REF:0 !
   
FUNCTION GHCPZN     2.98140E+02  -4315.967+116.900389*T
  -23.701314*T*LN(T)-.001712034*T**2-1.264963E-06*T**3;  6.92680E+02  Y
   -8100.739+170.77598*T-31.38*T*LN(T)+4.70514E+26*T**(-9);  1.70000E+03  N 
  REF:0 !
FUNCTION GBCCZN     2.98140E+02  -4398.827+115.959669*T-23.701314*T*LN(T)
     -.001712034*T**2-1.264963E-06*T**3;  6.92680E+02  Y
      -8183.599+169.83526*T-31.38*T*LN(T)+4.70514E+26*T**(-9);  1.70000E+03  
     N !
 FUNCTION GBCTZN  2.98140E+02  -4398.827+115.959669*T
  -23.701314*T*LN(T)-.001712034*T**2-1.264963E-06*T**3;  6.92680E+02  Y
   -8183.599+169.83526*T-31.38*T*LN(T)+4.70514E+26*T**(-9);  1.70000E+03  N 
  REF:0 !
FUNCTION GFCCZN  2.98140E+02  -4315.967+116.900389*T
  -23.701314*T*LN(T)-.001712034*T**2-1.264963E-06*T**3;  6.92680E+02  Y
   -8100.739+170.77598*T-31.38*T*LN(T)+4.70514E+26*T**(-9);  1.70000E+03  N 
  REF:0 !


 TYPE_DEFINITION % SEQ *!
 DEFINE_SYSTEM_DEFAULT SPECIE 2 !
 DEFAULT_COMMAND DEF_SYS_ELEMENT VA !

PHASE DIAMOND_A4 % 1 1 !
CONSTITUENT DIAMOND_A4 : SN : !

PARAMETER G(DIAMOND_A4,SN;0)   100
 -9579.608+114.007785*T-22.972*T*LN(T)-8.13975E-3*T**2+2.7288E-6*T**3
 +25615*T**(-1);   298.15 Y
 -9063.001+104.84654*T-21.5750771*T*LN(T)-8.575282E-3*T**2+1.784447E-6*T**3
 -2544*T**(-1);   800 Y
 -10909.351+147.396535*T-28.4512*T*LN(T);  3000 N !


 PHASE AGSB_ORTHO  %  2 .75   .25 !
    CONSTITUENT AGSB_ORTHO  :AG,VA,ZN : AG,SN :  !

PARAMETER G(AGSB_ORTHO,AG:AG;0)  2.98140E+02  +GHSERAG#+2000;  
  3.00000E+03  N REF:0 !
PARAMETER G(AGSB_ORTHO,AG:SN;0)  2.98150E+02  -11085.3+
  110.01471*T
  -23.18*T*LN(T)-.00359*T**2+4389.5*T**(-1);   6.00000E+03  
   N REF:0 !

PARAMETER G(AGSB_ORTHO,VA:AG;0)  2.98140E+02  
  +0.25*GHSERAG#+35000;  
  3.00000E+03  N REF:0 !

PARAMETER G(AGSB_ORTHO,VA:SN;0)  2.98140E+02  
  +0.25*GHSERSN#+20000; 3.00000E+03 N !

PARAMETER G(AGSB_ORTHO,AG:AG,SN;0)  2.98140E+02  1.0E-5 ; 
   3.00000E+03  N REF:0 !
PARAMETER G(AGSB_ORTHO,VA:AG,SN;0)  2.98140E+02  13000.0 ; 
   3.00000E+03  N REF:0 !

PARAMETER G(AGSB_ORTHO,AG,VA:SN;0)  2.98140E+02  -3000.0 ; 
   3.00000E+03  N REF:0 !

PARAMETER G(AGSB_ORTHO,AG,VA:AG;0)  2.98140E+02  -2000.0 ; 
   3.00000E+03  N REF:0 !


$$$$$$$$$$$$$$$$$$$$$$$$$$$$$$$$$$$$$$$$$$$$$$$$$$$$$$$$

PARAMETER G(AGSB_ORTHO,ZN:SN;0)  2.98140E+02  
  +0.25*GHSERSN#+0.75*GHSERZN#+600;  
  3.00000E+03  N REF:0 !

 PHASE AGZN_BRASS  %  4 0.15385   0.15385 0.2308   0.4615 !
    CONSTITUENT AGZN_BRASS  :AG,ZN,SN : AG,ZN : AG : ZN :  !

 PARAMETER G(AGZN_BRASS,AG:AG:AG:ZN;0)  2.98140E+02  
  +0.5385*GHSERAG#+0.4615*GHSERZN#-3781.1385-0.778*T*LN(T);  
   3.00000E+03  N REF:0 !
 PARAMETER G(AGZN_BRASS,ZN:AG:AG:ZN;0)  2.98140E+02  
  +0.38465*GHSERAG#+0.61535*GHSERZN#-6315.6615-0.6156*T*LN(T);  
   3.00000E+03  N REF:0 !
 PARAMETER G(AGZN_BRASS,AG:ZN:AG:ZN;0)  2.98140E+02  
   +0.38465*GHSERAG#+0.61535*GHSERZN#-965.9515-1.4435*T*LN(T);  
   3.00000E+03  N REF:0 !
 PARAMETER G(AGZN_BRASS,ZN:ZN:AG:ZN;0)  2.98140E+02  
   +0.2308*GHSERAG#+0.7692*GHSERZN#-4621.91-0.2934*T*LN(T);  
  3.00000E+03  N REF:0 !
 PARAMETER G(AGZN_BRASS,AG,ZN:AG:AG:ZN;0)  2.98140E+02  
  1.0E-5 ;  3.00000E+03 N REF:0 !
 PARAMETER G(AGZN_BRASS,AG:AG,ZN:AG:ZN;0)  2.98140E+02  
  1.0E-5 ;  3.00000E+03 N REF:0 !
 PARAMETER G(AGZN_BRASS,ZN:AG,ZN:AG:ZN;0)  2.98140E+02  
  1.0E-5 ;  3.00000E+03 N REF:0 !
 PARAMETER G(AGZN_BRASS,AG,ZN:ZN:AG:ZN;0)  2.98140E+02  
  1.0E-5 ;  3.00000E+03 N REF:0 !
$$$$$$$$$$$$$$$$$$$$$$$$$$$$$$$$$$$$$$$$$$$$$$$$$$$$$$$$$$$$$$$

PARAMETER G(AGZN_BRASS,SN:AG:AG:ZN;0)  2.98140E+02  
  +0.38465*GHSERAG#
  +0.4615*GHSERZN#+0.15385*GHSERSN#
 -3011.9-0.78*T*LN(T);  3.00000E+03  N REF:0 !

 PHASE AGZN_ZETA  %  2 0.3333   0.6667 !
    CONSTITUENT AGZN_ZETA  :ZN : AG,ZN :  !

PARAMETER G(AGZN_ZETA,ZN:AG;0)  2.98140E+02 +0.6667*GBCCAG#
 +0.3333*GBCCZN#-9066.6666; 3.00000E+03  N REF:0 !
PARAMETER G(AGZN_ZETA,ZN:ZN;0)  2.98140E+02 +GBCCZN#
  +233.3333 ;  3.00000E+03  N REF:0 !
PARAMETER G(AGZN_ZETA,ZN:AG,ZN;0)  2.98140E+02 -10690;
  3.00000E+03  N REF:0 !

PHASE BCC_A2  %  2 0.5   0.5 !
    CONSTITUENT BCC_A2  :AG,ZN,VA,SN : AG,ZN,VA,SN :  !

PARAMETER G(BCC_A2,AG:AG;0)  2.98140E+02 GBCCAG#+
  25494; 3.00000E+03 N REF:0 !
PARAMETER G(BCC_A2,ZN:ZN;0)  2.98140E+02 GBCCZN#+
 18000; 3.00000E+03 N REF:0 !
PARAMETER G(BCC_A2,VA:VA;0)  2.98140E+02 16500;
 3.00000E+03 N REF:0 !

PARAMETER G(BCC_A2,AG:ZN;0)  2.98140E+02 0.5*GBCCZN#+
 0.5*GBCCAG#+18830.5-0.63*T; 3.00000E+03 
   N REF:0 !
PARAMETER G(BCC_A2,ZN:AG;0)  2.98140E+02 0.5*GBCCZN#+
 0.5*GBCCAG#+18830.5-0.63*T; 3.00000E+03 
   N REF:0 !

PARAMETER G(BCC_A2,VA:AG;0)  2.98140E+02 0.5*GBCCAG#-
 190 ; 3.00000E+03 N REF:0 !
PARAMETER G(BCC_A2,AG:VA;0)  2.98140E+02 0.5*GBCCAG#-
 190 ; 3.00000E+03 N REF:0 !

PARAMETER G(BCC_A2,VA:ZN;0)  2.98140E+02  0.5*GBCCZN#+
 216+0*T ;  1.70000E+03  N  REF:0 !

PARAMETER G(BCC_A2,ZN:VA;0)  2.98140E+02  0.5*GBCCZN#+
 216+0*T ;  1.70000E+03  N  REF:0 !

PARAMETER G(BCC_A2,VA:AG,ZN;0)  2.98140E+02 -15370
  +1.2*T; 3.00000E+03  N REF:0 !
PARAMETER G(BCC_A2,ZN:AG,VA;0)  2.98140E+02 -15370
  +1.2*T; 3.00000E+03  N REF:0 !


$$$$$$$$$$$$$$$$$$$$$$$$$$$$$$$$$$$$$$$$$$$$$$$$$$$$$$$$$$$$$$

PARAMETER G(BCC_A2,SN:AG;0)  2.98140E+02 0.5*GBCCSN#+
 0.5*GBCCAG#-6315+3.5*T; 3.00000E+03 N REF:0 !
PARAMETER G(BCC_A2,AG:SN;0)  2.98140E+02 0.5*GBCCSN#+
 0.5*GBCCAG#-6315+3.5*T; 3.00000E+03 N REF:0 !
PARAMETER G(BCC_A2,ZN:SN;0)  2.98140E+02 0.5*GBCCSN#+
 0.5*GBCCZN#+10400-0.6*T;  3.00000E+03 N REF:0 !
PARAMETER G(BCC_A2,SN:ZN;0)  2.98140E+02 0.5*GBCCSN#+
 0.5*GBCCZN#+10400-0.6*T; 
   3.00000E+03 N REF:0 !
PARAMETER G(BCC_A2,VA:SN;0)  2.98140E+02 0.5*GBCCSN#+
 +5000; 3.00000E+03 N REF:0 !
PARAMETER G(BCC_A2,SN:VA;0)  2.98140E+02 0.5*GBCCSN#+
 +5000; 3.00000E+03 N REF:0 !

 PHASE BCT_A5  %  1  1.0  !
    CONSTITUENT BCT_A5  :AG,SN%,ZN :  !

 PARAMETER G(BCT_A5,AG;0)  2.98140E+02  GBCTAG#;  
  3.00000E+03 N REF:0 !
 PARAMETER G(BCT_A5,SN;0)  1.00000E+02  GBCTSN#;  
  3.00000E+03  N REF:0 !
 PARAMETER G(BCT_A5,ZN;0)  2.98140E+02  GBCTZN#;  
  1.70000E+03  N REF:0 !
 PARAMETER G(BCT_A5,AG,SN;0)  2.98150E+02  18358.8;   
  6.00000E+03   N REF:0 !
 PARAMETER G(BCT_A5,AG,ZN;0)  2.98140E+02  -10000;  
  1.00000E+03  N REF:0 !
 PARAMETER G(BCT_A5,SN,ZN;0)  2.98150E+02  +6514.76
  +25.70957*T;   6.00000E+03   N REF:0 !



  PHASE FCC_A1  %  2 1   1 !
    CONSTITUENT FCC_A1  :AG%,SN,ZN : VA :  !

PARAMETER G(FCC_A1,AG:VA;0)  2.98140E+02  GFCCAG#;  
   3.00000E+03 N REF:0 !
PARAMETER G(FCC_A1,SN:VA;0)  2.98140E+02  GFCCSN#;  
  3.00000E+03  N REF:0 !
PARAMETER G(FCC_A1,ZN:VA;0)  2.98140E+02  GFCCZN#;  
  1.70000E+03  N  REF:0 !
PARAMETER G(FCC_A1,AG,SN:VA;0)  2.98150E+02  +745.45
 +11.498027*T;   6.00000E+03   N REF:0 !
PARAMETER G(FCC_A1,AG,SN:VA;1)  2.98150E+02 
  -36541.5;    6.00000E+03   N  REF:0 !
PARAMETER G(FCC_A1,AG,ZN:VA;0)  2.98140E+02 -24620
  +.91*T;  3.00000E+03  N REF:0 !
PARAMETER G(FCC_A1,SN,ZN:VA;0)  2.98150E+02  +33433.94
  -11.14466*T;   6.00000E+03   N REF:0 !

PARAMETER G(FCC_A1,AG,SN,ZN:VA;0)  2.98140E+02  +38000;  
   3.00000E+03  N REF:0 !
PARAMETER G(FCC_A1,AG,SN,ZN:VA;1)  2.98140E+02  0;  
   3.00000E+03  N REF:0 !
PARAMETER G(FCC_A1,AG,SN,ZN:VA;2)  2.98140E+02  +20000;  
   3.00000E+03  N  REF:0 !


PHASE HCP_A3  %  2 0.8   0.2 !
    CONSTITUENT HCP_A3  :AG,VA,ZN : AG,SN,ZN :  !

PARAMETER G(HCP_A3,VA:AG;0)  2.98140E+02  0.2*GHCPAG#;  
  3.00000E+03 N REF:0 !
 PARAMETER G(HCP_A3,VA:SN;0)  2.98140E+02  0.2*GHCPSN#
   +60;  3.00000E+03  N REF:0 !


PARAMETER G(HCP_A3,AG:AG;0)  2.98140E+02  GHCPAG# 
  +36439+0*T; 3.00000E+03 N REF:0 !

PARAMETER G(HCP_A3,AG:SN;0)  2.98140E+02  0.2*GHCPSN#+
  0.8*GHCPAG# +120400+0*T; 3.00000E+03 N REF:0 !

 PARAMETER G(HCP_A3,VA:AG,SN;0)  2.98150E+02  -209.66+
  2.232*T;   6.00000E+03   N REF:0 !
PARAMETER G(HCP_A3,AG:AG,SN;0)  2.98150E+02  -209.66+
  2.232*T;   6.00000E+03   N REF:0 !


PARAMETER G(HCP_A3,VA:AG,SN;1)  2.98150E+02  
 -7901.1;   6.00000E+03   N REF:0 !

$$$$$$$$$$$$$$$$$$$$$$$$$$$$$$$$$$$$$$$$$$$$$$$$$$$$$$

PARAMETER G(HCP_A3,ZN:AG;0)  2.98140E+02  0.2*GHCPAG#+
  0.8*GHCPZN# -4000; 3.00000E+03 N REF:0 !

PARAMETER G(HCP_A3,VA:ZN;0)  2.98140E+02  +
  0.2*GHCPZN#+3410+0*T; 3.00000E+03 N REF:0 !


PHASE EPSILON  %  2 1   0.5 !
    CONSTITUENT EPSILON  :AG,ZN : VA :  !

PARAMETER G(EPSILON,AG:VA;0)  2.98140E+02  GHCPAG#;  
  3.00000E+03 N REF:0 !
PARAMETER G(EPSILON,ZN:VA;0)  2.98140E+02  GHCPZN#;  
  1.70000E+03  N REF:0 !
PARAMETER G(EPSILON,AG,ZN:VA;0)  2.98140E+02  
  -21360-2.5*T;  3.00000E+03  N REF:0 !
PARAMETER G(EPSILON,AG,ZN:VA;1)  2.98140E+02 
  +37766.12-26.6016*T;  3.00000E+03  N REF:0 !




 PHASE HCP_ZN  %  2 1   .5 !
    CONSTITUENT HCP_ZN  :AG,SN,ZN% : VA :  !

 PARAMETER G(HCP_ZN,AG:VA;0)  2.98140E+02  +GHCPAG#;
     3.00000E+03 N REF:0 !
PARAMETER G(HCP_ZN,SN:VA;0)  2.98140E+02  +GHCPSN#;  
  3.00000E+03  N REF:0 !
   PARAMETER G(HCP_ZN,ZN:VA;0)  2.98140E+02  -7285.787+118.470069*T
  -23.701314*T*LN(T)-.001712034*T**2-1.264963E-06*T**3;  6.92680E+02  Y
   -11070.559+172.34566*T-31.38*T*LN(T)+4.70514E+26*T**(-9);  1.70000E+03  N 
  REF:0 !
PARAMETER G(HCP_ZN,AG,SN:VA;0)  2.98150E+02  10000;   
  6.00000E+03   N REF:0 !
PARAMETER G(HCP_ZN,AG,ZN:VA;0)  2.98140E+02  -18700+
 1.237*T;  3.00000E+03 N REF:0 !
PARAMETER G(HCP_ZN,SN,ZN:VA;0)  2.98150E+02  +33433.94-
 11.14466*T;   6.00000E+03   N REF:0 !

 PHASE LIQUID  %  1  1.0  !
    CONSTITUENT LIQUID  :AG,SN,ZN :  !

PARAMETER G(LIQUID,AG;0)  2.98140E+02  GLIQAG#;  
     3.00000E+03  N REF:0 !
PARAMETER G(LIQUID,SN;0)  1.00000E+02  GLIQSN#;  
   3.00000E+03  N REF:0 !
PARAMETER G(LIQUID,ZN;0)  2.98140E+02  GLIQZN#;  
   1.70000E+03  N REF:0 !

PARAMETER G(LIQUID,AG,SN;0)  2.98150E+02  -3177.49-
 10.16124*T+.380505*T*LN(T);   6.00000E+03 N REF:0 !
PARAMETER G(LIQUID,AG,SN;1)  2.98150E+02  -16782.28+
 2.06521*T+.437477*T*LN(T);   6.00000E+03 N REF:0 !
PARAMETER G(LIQUID,AG,SN;2)  2.98150E+02  +3190.34-
 107.09456*T+13.954838*T*LN(T);   6.00000E+03 N REF:0 !
PARAMETER G(LIQUID,AG,ZN;0)  2.98140E+02 -27600+
 6.07*T;  3.00000E+03  N REF:0 !
PARAMETER G(LIQUID,AG,ZN;1)  2.98140E+02  -5500;  
 3.00000E+03  N REF:0 !
PARAMETER G(LIQUID,SN,ZN;0)  2.98150E+02  +19314.64-
 75.89949*T+8.751396*T*LN(T);   6.00000E+03 N REF:0 !
PARAMETER G(LIQUID,SN,ZN;1)  2.98150E+02  -5696.28+
 4.20198*T;   6.00000E+03   N REF:0 !
PARAMETER G(LIQUID,SN,ZN;2)  2.98150E+02  +1037.22+
 .98362*T;  6.00000E+03   N REF:0 !

PARAMETER L(LIQUID,AG,SN,ZN;0)  298.15  30091+45*T; 
  3000 N REF:0 !
PARAMETER L(LIQUID,AG,SN,ZN;1)  298.15  37824-32*T; 
  3000 N REF:0 !
PARAMETER L(LIQUID,AG,SN,ZN;2)  298.15  112215-127*T; 
  3000 N REF:0 !









$ LIST_OF_REFERENCES
$ NUMBER  SOURCE! 

