
$ Database file written 12- 4-17
$
 ELEMENT /-   ELECTRON_GAS              0.0000E+00  0.0000E+00  0.0000E+00!
 ELEMENT VA   VACUUM                    0.0000E+00  0.0000E+00  0.0000E+00!
 ELEMENT BI   RHOMBOHEDRAL_A7           2.0898E+02  6.4266E+03  5.6735E+01!
 ELEMENT MG   HCP_A3                    2.4305E+01  4.9980E+03  3.2671E+01!
 ELEMENT SN   BCT_A5                    1.1871E+02  6.3220E+03  5.1195E+01!


 SPECIES BI2MG3                      BI2MG3!
 SPECIES MG2SN                       MG2SN1!

 FUNCTION GHSERBI    2.98140E+02  -7817.776+128.418925*T-28.4096529*T*LN(T)
     +.012338888*T**2-8.381598E-06*T**3;  5.44540E+02  Y
      +30208.022-393.650351*T+51.8556592*T*LN(T)-.075311163*T**2
     +1.3499885E-05*T**3-3616168*T**(-1)+1.66145E+25*T**(-9);  8.00000E+02  Y
      -11045.664+182.548971*T-35.9824*T*LN(T)+.0074266*T**2-1.046E-06*T**3
     +1.66145E+25*T**(-9);  1.20000E+03  Y
      -7581.312+124.77144*T-27.196*T*LN(T)+1.66145E+25*T**(-9);  3.00000E+03 
      N !
 FUNCTION GHSERMG    2.98140E+02  -8367.34+143.675547*T-26.1849782*T*LN(T)
     +4.858E-04*T**2-1.393669E-06*T**3+78950*T**(-1);  9.23000E+02  Y
      -14130.185+204.716215*T-34.3088*T*LN(T)+1.038192E+28*T**(-9);  
     3.00000E+03  N !
 FUNCTION GMGLIQ     2.98140E+02  +8202.243-8.83693*T+GHSERMG#
     -8.0176E-20*T**7;  9.23000E+02  Y
      -5439.869+195.324057*T-34.3088*T*LN(T);  3.00000E+03  N !
 FUNCTION GHSERSN    1.00000E+02  -7958.517+122.765451*T-25.858*T*LN(T)
     +5.1185E-04*T**2-3.192767E-06*T**3+18440*T**(-1);  2.50000E+02  Y
      -5855.135+65.443315*T-15.961*T*LN(T)-.0188702*T**2+3.121167E-06*T**3
     -61960*T**(-1);  5.05080E+02  Y
      +2524.724+4.005269*T-8.2590486*T*LN(T)-.016814429*T**2
     +2.623131E-06*T**3-1081244*T**(-1)-1.2307E+25*T**(-9);  8.00000E+02  Y
      -8256.959+138.99688*T-28.4512*T*LN(T)-1.2307E+25*T**(-9);  3.00000E+03 
      N !
 FUNCTION GSNLIQ     1.00000E+02  +7103.092-14.087767*T+GHSERSN#
     +1.47031E-18*T**7;  5.05080E+02  Y
      +6971.586-13.814383*T+GHSERSN#+1.2307E+25*T**(-9);  8.00000E+02  Y
      -1285.372+125.182498*T-28.4512*T*LN(T);  3.00000E+03  N !
 FUNCTION GBILIQ  2.98140E+02  +11246.066-20.636509*T+GHSERBI#
  -5.9549E-19*T**7;  5.44540E+02  Y
   +11336.26-20.810418*T+GHSERBI#-1.66145E+25*T**(-9);  8.00000E+02  Y
   +11336.259-20.810418*T+GHSERBI#-1.66145E+25*T**(-9);  1.20000E+03  Y
   +3754.947+103.961021*T-27.196*T*LN(T);  3.00000E+03  N REF:0 !
 FUNCTION UN_ASS 298.15 0; 300 N !

 TYPE_DEFINITION % SEQ *!
 DEFINE_SYSTEM_DEFAULT SPECIE 2 !
 DEFAULT_COMMAND DEF_SYS_ELEMENT VA !


 PHASE LIQUID  %  1  1.0  !
    CONSTITUENT LIQUID  :BI,BI2MG3,MG,MG2SN,SN :  !

  PARAMETER G(LIQUID,BI;0)  2.98140E+02  +GBILIQ#;  3.00000E+03  N REF:0 !
  PARAMETER G(LIQUID,MG;0)  2.98140E+02  +GMGLIQ#;  3.00000E+03  N REF:0 !
  PARAMETER G(LIQUID,SN;0)  1.00000E+02  +GSNLIQ#;  3.00000E+03  N REF:0 !
  PARAMETER G(LIQUID,BI2MG3;0) 298 -110200+3*T-2.9*T*LN(T)
   +2*GBILIQ#+3*GMGLIQ#; 6000 N !
  PARAMETER G(LIQUID,BI,BI2MG3;0) 298 -36000; 6000 N !
  PARAMETER G(LIQUID,BI,BI2MG3;1) 298 +10000; 6000 N !
  PARAMETER G(LIQUID,BI,MG;0) 298 -42939.67-13.82*T; 6000 N !
  PARAMETER G(LIQUID,BI,MG;1) 298 12*T; 6000 N !
  PARAMETER G(LIQUID,BI2MG3,MG;0) 298 -37000+20*T; 6000 N !
  PARAMETER G(LIQUID,BI2MG3,MG;1) 298 -10000; 6000 N !
  PARAMETER G(LIQUID,BI,SN;0) 298 +500+1.5*T; 6000 N !
  PARAMETER G(LIQUID,BI,SN;1) 298 -100-0.135*T; 6000 N !
  PARAMETER G(LIQUID,MG2SN;0) 298 -66092.9+94.809*T-11.576*T*LN(T)
  +GSNLIQ#+2*GMGLIQ#; 6000 N !
  PARAMETER G(LIQUID,MG2SN,SN;0) 298 -12468.2-4.815*T; 6000 N !
  PARAMETER G(LIQUID,MG,MG2SN;0) 298 +5970.6-8.744*T; 6000 N !
  PARAMETER G(LIQUID,MG,SN;0) 298 -30841.1+0.781*T; 6000 N !
  PARAMETER G(LIQUID,BI,MG2SN;0) 298  -29947.4-20*T; 6000 N !
  PARAMETER G(LIQUID,BI,MG2SN;1) 298  +19161; 6000 N !
  PARAMETER G(LIQUID,BI2MG3,MG2SN;0) 298 -20200+10*T; 6000 N !
  PARAMETER G(LIQUID,BI2MG3,MG2SN;1) 298 -10000; 6000 N !
  PARAMETER G(LIQUID,BI2MG3,SN;1) 298 +10000; 6000 N !
  PARAMETER G(LIQUID,BI,MG,SN;0) 298 -18066.9+2*T; 6000 N !
  PARAMETER G(LIQUID,BI,MG,SN;1) 298 -18066.9+2*T; 6000 N !
  PARAMETER G(LIQUID,BI,MG,SN;2) 298 -18066.9+2*T; 6000 N !


 PHASE BCT_A5  %  1  1.0  !
    CONSTITUENT BCT_A5  :BI,SN :  !

  PARAMETER G(BCT_A5,BI;0)  2.98140E+02  +4184.07+GHSERBI#;  3.00000E+03  N 
  REF:0 !
  PARAMETER G(BCT_A5,SN;0)  1.00000E+02  +GHSERSN#;  3.00000E+03  N REF:0 !
  PARAMETER G(BCT_A5,BI,SN;0)  1.00000E+02  +3500-1.038*T;  
   3.00000E+03  N REF:0 !
  PARAMETER G(BCT_A5,BI,SN;1)  1.00000E+02  -3710;  3.00000E+03  N REF:0 !


 PHASE HCP_A3  %  2 1   .5 !
    CONSTITUENT HCP_A3  :BI,MG,SN : VA :  !

 PARAMETER G(HCP_A3,BI:VA;0)  2.98140E+02  +9900-11.8*T+GHSERBI#;  
  3.00000E+03  N REF:0 !
 PARAMETER G(HCP_A3,MG:VA;0)  2.98140E+02  +GHSERMG#;  3.00000E+03  N 
  REF:0 !
 PARAMETER G(HCP_A3,SN:VA;0)  1.00000E+02  +3900-4.4*T+GHSERSN#;  
  3.00000E+03  N REF:0 !
 PARAMETER G(HCP_A3,BI,MG:VA;0)  1.00000E+02  -36800-18*T;  
  3.00000E+03  N REF:0 !
 PARAMETER G(HCP_A3,MG,SN:VA;0)  1.00000E+02  -26256.5+6.234*T;  
  3.00000E+03  N REF:0 !
 PARAMETER G(HCP_A3,MG,SN:VA;1)  1.00000E+02  -31895.7;
  3.00000E+03  N REF:0 !



 PHASE RHOMBO_A7  %  1  1.0  !
    CONSTITUENT RHOMBO_A7  :BI,SN :  !

 PARAMETER G(RHOMBO_A7,BI;0)  2.98140E+02  +GHSERBI#;  3.00000E+03  N 
  REF:0 !
 PARAMETER G(RHOMBO_A7,SN;0)  1.00000E+02  +2035+GHSERSN#;  3.00000E+03  N 
  REF:0 !
 PARAMETER G(RHOMBO_A7,BI,SN;0) 298 +19720-22.6*T; 6000 N !
 PARAMETER G(RHOMBO_A7,BI,SN;1) 298 -5760+13.834*T; 6000 N !



 PHASE BI2MG3_L  %  2 2   3 !
    CONSTITUENT BI2MG3_L  :BI,SN,VA : MG :  !

 PARAMETER G(BI2MG3_L,BI:MG;0)  2.98140E+02  +2*GHSERBI#+3*GHSERMG#
   -172400+80.83*T-10*T*LN(T);  3.00000E+03  N  !
 PARAMETER G(BI2MG3_L,VA:MG;0)  298  3*GHSERMG#+60000-17*T;
    3.00000E+03  N  !
 PARAMETER G(BI2MG3_L,BI,VA:MG;0) 298 -38500+7.8*T; 6000 N !
 PARAMETER G(BI2MG3_L,BI,VA:MG;1) 298 -38772.7+40*T; 6000 N !
 PARAMETER G(BI2MG3_L,BI,VA:MG;2) 298 +15500+20*T; 6000 N !
 PARAMETER G(BI2MG3_L,SN:MG;0)  2.98140E+02  +2*GHSERSN#+3*GHSERMG#
   -40000-20*T;  3.00000E+03  N  !


 PHASE BI2MG3_H  %  3  1  3   6  !
    CONSTITUENT BI2MG3_H  :BI,SN : BI,SN,VA : MG  : !

 PARAMETER G(BI2MG3_H,BI:BI:MG;0)  2.98140E+02  +4*GHSERBI#+6*GHSERMG#
   -210083-114*T;  3.00000E+03  N  !
 PARAMETER G(BI2MG3_H,BI:VA:MG;0)  1.00000E+02  1*GHSERBI#+6*GHSERMG#
   +43728+88*T;  3.00000E+03  N  !
 PARAMETER G(BI2MG3_H,BI:BI,VA:MG;0) 298 -173000-20*T; 6000 N !
 PARAMETER G(BI2MG3_H,BI:BI,VA:MG;1) 298 -5000; 6000 N !
 PARAMETER G(BI2MG3_H,BI:SN:MG;0)  2.98140E+02  +1*GHSERBI#+3*GHSERSN#
   +6*GHSERMG#+62074-45*T;  3.00000E+03  N  !
 PARAMETER G(BI2MG3_H,SN:BI:MG;0)  2.98140E+02  +3*GHSERBI#+1*GHSERSN#
 +6*GHSERMG#-39310.4-119.6*T;  3.00000E+03  N  !
 PARAMETER G(BI2MG3_H,SN:VA:MG;0)  2.98140E+02  1*GHSERSN#+6*GHSERMG#
   -41346.7+19*T;  3.00000E+03  N  !
 PARAMETER G(BI2MG3_H,SN:SN:MG;0)  2.98140E+02  4*GHSERSN#+6*GHSERMG#
   -10000-180*T;  3.00000E+03  N  !
 PARAMETER G(BI2MG3_H,BI,SN:BI:MG;0) 298 -116075-35*T; 6000 N !
 PARAMETER G(BI2MG3_H,BI,SN:SN:MG;0) 298 -116075-35*T; 6000 N !
 PARAMETER G(BI2MG3_H,BI,SN:VA:MG;0) 298 -116075-35*T; 6000 N !
 PARAMETER G(BI2MG3_H,BI,SN:BI:MG;1) 298 -8000+20*T; 6000 N !
 PARAMETER G(BI2MG3_H,BI,SN:SN:MG;1) 298 -8000+20*T; 6000 N !
 PARAMETER G(BI2MG3_H,BI,SN:VA:MG;1) 298 -8000+20*T; 6000 N !

 PARAMETER G(BI2MG3_H,BI:BI,SN:MG;0) 298 -120288-80*T; 6000 N !
 PARAMETER G(BI2MG3_H,SN:BI,SN:MG;0) 298 -120288-80*T; 6000 N !
 PARAMETER G(BI2MG3_H,BI:BI,SN:MG;1) 298 -20000; 6000 N !
 PARAMETER G(BI2MG3_H,SN:BI,SN:MG;1) 298 -20000; 6000 N !

 PARAMETER G(BI2MG3_H,BI:SN,VA:MG;0) 298 -170000-20*T; 6000 N !
 PARAMETER G(BI2MG3_H,SN:SN,VA:MG;0) 298 -170000-20*T; 6000 N !

 PARAMETER G(BI2MG3_H,SN:BI,VA:MG;0) 298 -173000-20*T; 6000 N !
 PARAMETER G(BI2MG3_H,SN:BI,VA:MG;1) 298 -5000; 6000 N !

 PHASE MG2SN  %  2  2   1  !
    CONSTITUENT MG2SN  :BI,MG : BI,SN  : !

 PARAMETER G(MG2SN,MG:SN;0)  2.98140E+02  -96165.9+339.999*T-66.285*T*LN(T)
   -0.0121662*T**2+96000*T**(-1)+3.33828E-7*T**3;  3.00000E+03  N  !
 PARAMETER G(MG2SN,BI:BI;0) 298  3*GHSERBI#+29484.55-53*T; 6000 N !
 PARAMETER G(MG2SN,BI:SN;0) 298  2*GHSERBI#+GHSERSN+180107-75*T; 6000 N !
 PARAMETER G(MG2SN,MG:BI;0) 298  2*GHSERMG#+GHSERBI#+57700-60*T; 6000 N !
 PARAMETER G(MG2SN,BI,MG:BI;0)  2.98140E+02  -35000-20*T;  3.00000E+03  N  !
 PARAMETER G(MG2SN,BI,MG:SN;0)  2.98140E+02  -35000-20*T;  3.00000E+03  N  !
 PARAMETER G(MG2SN,BI,MG:BI;1)  2.98140E+02  +113000+10*T;  3.00000E+03  N  !
 PARAMETER G(MG2SN,BI,MG:SN;1)  2.98140E+02  +113000+10*T;  3.00000E+03  N  !

 PARAMETER G(MG2SN,BI:BI,SN;0)  2.98140E+02  -105000-20*T;  3.00000E+03  N  !
 PARAMETER G(MG2SN,MG:BI,SN;0)  2.98140E+02  -105000-20*T;  3.00000E+03  N  !
 PARAMETER G(MG2SN,BI:BI,SN;1)  2.98140E+02  -46420.5-7*T;  3.00000E+03  N  !
 PARAMETER G(MG2SN,MG:BI,SN;1)  2.98140E+02  -46420.5-7*T;  3.00000E+03  N  !

 LIST_OF_REFERENCES
 NUMBER  SOURCE
  ! 

