$                         *********************
$                         File name: MgSnSr.TDB
$                         *********************
$-----------------------------------------------------------------------------
$  Thermodynamic database of the Mg-Sn-Sr system, modeled by Bi-Cheng Zhou 
$            + Phases Research Lab
$              Department of Materials Science and Engineering
$              The Pennsylvania State University
$              Last update: May 11, 2014
$-----------------------------------------------------------------------------

 ELEMENT /-   ELECTRON_GAS              0.0000E+00  0.0000E+00  0.0000E+00!
 ELEMENT VA   VACUUM                    0.0000E+00  0.0000E+00  0.0000E+00!
 ELEMENT MG   HCP_A3                    2.4305E+01  4.9980E+03  3.2671E+01!
 ELEMENT SN   BCT_A5                    1.1871E+02  6.3220E+03  5.1195E+01!
 ELEMENT SR   FCC_A1                    8.7620E+01  0.0000E+00  0.0000E+00!
 
 SPECIES MG2SN                       MG2SN1!
 SPECIES SNSR2                       SN1SR2!
 
 FUNCTION GHSERMG    2.98150E+02  -8367.34+143.676*T-26.185*T*LN(T)
     +4.858E-04*T**2-1.39367E-06*T**3+78950*T**(-1);  9.23000E+02  Y
      -14130.2+204.716*T-34.3088*T*LN(T)+1.03819E+28*T**(-9);  3.00000E+03  
     N !
 FUNCTION GHSERSN    1.00000E+02  -7958.517+122.765451*T-25.858*T*LN(T)
     +5.1185E-04*T**2-3.192767E-06*T**3+18440*T**(-1);  2.50000E+02  Y
      -5855.135+65.443315*T-15.961*T*LN(T)-.0188702*T**2+3.121167E-06*T**3
     -61960*T**(-1);  5.05080E+02  Y
      +2524.724+4.005269*T-8.2590486*T*LN(T)-.016814429*T**2
     +2.623131E-06*T**3-1081244*T**(-1)-1.2307E+25*T**(-9);  8.00000E+02  Y
      -8256.959+138.99688*T-28.4512*T*LN(T)-1.2307E+25*T**(-9);  3.00000E+03 
      N !
 FUNCTION GHSERSR    2.98150E+02  -7532.367+107.183879*T-23.905*T*LN(T)
     -.00461225*T**2-1.67477E-07*T**3-2055*T**(-1);  8.20000E+02  Y
      -13380.102+153.196104*T-30.0905432*T*LN(T)-.003251266*T**2
     +1.84189E-07*T**3+850134*T**(-1);  3.00000E+03  N !
 FUNCTION GLIQMG     2.98150E+02  +GHSERMG+8202.24-8.83693*T
     -8.0176E-20*T**7;  9.23000E+02  Y
      +8690.32-9.39216*T+GHSERMG-1.03819E+28*T**(-9);  3.00000E+03  N !
 FUNCTION GLIQSN     1.00000E+02  -855.425+108.677684*T-25.858*T*LN(T)
     +5.1185E-04*T**2-3.192767E-06*T**3+18440*T**(-1)+1.47031E-18*T**7;  
     2.50000E+02  Y
      +1247.957+51.355548*T-15.961*T*LN(T)-.0188702*T**2+3.121167E-06*T**3
     -61960*T**(-1)+1.47031E-18*T**7;  5.05080E+02  Y
      +9496.31-9.809114*T-8.2590486*T*LN(T)-.016814429*T**2
     +2.623131E-06*T**3-1081244*T**(-1);  8.00000E+02  Y
      -1285.372+125.182498*T-28.4512*T*LN(T);  3.00000E+03  N !
 FUNCTION GLIQSR     2.98150E+02  +2194.997-10.118994*T-5.0668978*T*LN(T)
     -.031840595*T**2+4.981237E-06*T**3-265559*T**(-1);  1.05000E+03  Y
      -10855.29+213.406219*T-39.463*T*LN(T);  3.00000E+03  N !
 FUNCTION UN_ASS     2.98150E+02  0.0 ;  3.00000E+02  N !
 
 TYPE_DEFINITION % SEQ *!
 DEFINE_SYSTEM_DEFAULT ELEMENT 2 !
 DEFAULT_COMMAND DEF_SYS_ELEMENT VA /- !

 TYPE_DEFINITION & GES A_P_D BCC_A2 MAGNETIC  -1.0    4.00000E-01 !
 PHASE BCC_A2  %&  2 1   3 !
    CONSTITUENT BCC_A2  :MG,SN,SR : VA :  !

   PARAMETER G(BCC_A2,MG:VA;0)  2.98150E+02  +3100-2.1*T+GHSERMG;  
  3.00000E+03  N  !
   PARAMETER G(BCC_A2,SN:VA;0)  1.00000E+02  -3558.517+116.765451*T
  -25.858*T*LN(T)+5.1185E-04*T**2-3.192767E-06*T**3+18440*T**(-1);  
  2.50000E+02  Y
   -1455.135+59.443315*T-15.961*T*LN(T)-.0188702*T**2+3.121167E-06*T**3
  -61960*T**(-1);  5.05080E+02  Y
   +6924.724-1.994731*T-8.2590486*T*LN(T)-.016814429*T**2+2.623131E-06*T**3
  -1081244*T**(-1)-1.2307E+25*T**(-9);  8.00000E+02  Y
   -3856.959+132.99688*T-28.4512*T*LN(T)-1.2307E+25*T**(-9);  3.00000E+03  N !
   PARAMETER G(BCC_A2,SR:VA;0)  2.98150E+02  -6779.234+116.583654*T
  -25.6708365*T*LN(T)-.003126762*T**2+2.2965E-07*T**3+27649*T**(-1);  
  8.20000E+02  Y
   -6970.594+122.067301*T-26.57*T*LN(T)-.0019493*T**2-1.7895E-08*T**3
  +16495*T**(-1);  1.05000E+03  Y
   +8168.357+.423037*T-9.7788593*T*LN(T)-.009539908*T**2+5.20221E-07*T**3
  -2414794*T**(-1);  3.00000E+03  N  !
   PARAMETER G(BCC_A2,MG,SR:VA;0)  2.98140E+02  20000;  3.00000E+03  N  !
   PARAMETER G(BCC_A2,SN,SR:VA;0)  2.98140E+02  50000;  3.00000E+03  N  !


 PHASE BCT_A5  %  1  1.0  !
    CONSTITUENT BCT_A5  :SN,SR :  !

   PARAMETER G(BCT_A5,SN;0)  1.00000E+02  +GHSERSN;  3.00000E+03  N  !
   PARAMETER G(BCT_A5,SR;0)  2.98150E+02  +GHSERSR+25000;  3.00000E+03  N !
   PARAMETER G(BCT_A5,SN,SR;0)  2.98150E+02  -63355.1281;  3.00000E+03  N !
   PARAMETER G(BCT_A5,SN,SR;1)  2.98150E+02  -59395.4326;  3.00000E+03  N !


 TYPE_DEFINITION ' GES A_P_D CBCC_A12 MAGNETIC  -3.0    2.80000E-01 !
 PHASE CBCC_A12  %'  2 1   1 !
    CONSTITUENT CBCC_A12  :MG,SN : VA :  !

   PARAMETER G(CBCC_A12,MG:VA;0)  2.98150E+02  +4602.4-3.011*T+GHSERMG;  
  3.00000E+03  N  !
   PARAMETER G(CBCC_A12,SN:VA;0)  1.00000E+02  -5958.517+122.765451*T
  -25.858*T*LN(T)+5.1185E-04*T**2-3.192767E-06*T**3+18440*T**(-1);  
  2.50000E+02  Y
   -3855.135+65.443315*T-15.961*T*LN(T)-.0188702*T**2+3.121167E-06*T**3
  -61960*T**(-1);  5.05080E+02  Y
   +4524.724+4.005269*T-8.2590486*T*LN(T)-.016814429*T**2+2.623131E-06*T**3
  -1081244*T**(-1)-1.2307E+25*T**(-9);  8.00000E+02  Y
   -6256.959+138.99688*T-28.4512*T*LN(T)-1.2307E+25*T**(-9);  3.00000E+03  N !


 PHASE CUB_A13  %  2 1   1 !
    CONSTITUENT CUB_A13  :MG,SN : VA :  !

   PARAMETER G(CUB_A13,MG:VA;0)  2.98150E+02  +5000-3*T+GHSERMG;  
  3.00000E+03  N  !
   PARAMETER G(CUB_A13,SN:VA;0)  1.00000E+02  -5958.517+122.765451*T
  -25.858*T*LN(T)+5.1185E-04*T**2-3.192767E-06*T**3+18440*T**(-1);  
  2.50000E+02  Y
   -3855.135+65.443315*T-15.961*T*LN(T)-.0188702*T**2+3.121167E-06*T**3
  -61960*T**(-1);  5.05080E+02  Y
   +4524.724+4.005269*T-8.2590486*T*LN(T)-.016814429*T**2+2.623131E-06*T**3
  -1081244*T**(-1)-1.2307E+25*T**(-9);  8.00000E+02  Y
   -6256.959+138.99688*T-28.4512*T*LN(T)-1.2307E+25*T**(-9);  3.00000E+03  N !


 PHASE DIAMOND_A4  %  1  1.0  !
    CONSTITUENT DIAMOND_A4  :SN :  !

   PARAMETER G(DIAMOND_A4,SN;0)  1.00000E+02  -9579.608+114.007785*T
  -22.972*T*LN(T)-.00813975*T**2+2.7288E-06*T**3+25615*T**(-1);  2.98150E+02 
   Y
   -9063.001+104.84654*T-21.5750771*T*LN(T)-.008575282*T**2
  +1.784447E-06*T**3-2544*T**(-1);  8.00000E+02  Y
   -10909.351+147.396535*T-28.4512*T*LN(T);  3.00000E+03  N  !


 TYPE_DEFINITION ( GES A_P_D FCC_A1 MAGNETIC  -3.0    2.80000E-01 !
 PHASE FCC_A1  %(  2 1   1 !
    CONSTITUENT FCC_A1  :MG,SN,SR : VA :  !

   PARAMETER G(FCC_A1,MG:VA;0)  2.98150E+02  +2600-.9*T+GHSERMG;  
  3.00000E+03  N  !
   PARAMETER G(FCC_A1,SN:VA;0)  2.98150E+02  -345.135+56.983315*T
  -15.961*T*LN(T)-.0188702*T**2+3.121167E-06*T**3-61960*T**(-1);  
  5.05080E+02  Y
   +8034.724-4.454731*T-8.2590486*T*LN(T)-.016814429*T**2+2.623131E-06*T**3
  -1081244*T**(-1)-1.2307E+25*T**(-9);  8.00000E+02  Y
   -2746.959+130.53688*T-28.4512*T*LN(T)-1.2307E+25*T**(-9);  3.00000E+03  N !
   PARAMETER G(FCC_A1,SR:VA;0)  2.98150E+02  +GHSERSR;  3.00000E+03  N  !
   PARAMETER G(FCC_A1,MG,SR:VA;0)  2.98140E+02  20000;  3.00000E+03  N  !
   PARAMETER G(FCC_A1,SN,SR:VA;0)  2.98150E+02  -43803.4972;  3.00000E+03  N !
   PARAMETER G(FCC_A1,SN,SR:VA;1)  2.98150E+02  41065.8786;  3.00000E+03  N !


 TYPE_DEFINITION ) GES A_P_D HCP_A3 MAGNETIC  -3.0    2.80000E-01 !
 PHASE HCP_A3  %)  2 1   .5 !
    CONSTITUENT HCP_A3  :MG,SN,SR : VA :  !

   PARAMETER G(HCP_A3,MG:VA;0)  2.98150E+02  +GHSERMG;  3.00000E+03  N  !
   PARAMETER G(HCP_A3,SN:VA;0)  2.98150E+02  -1955.135+57.797315*T
  -15.961*T*LN(T)-.0188702*T**2+3.121167E-06*T**3-61960*T**(-1);  
  5.05080E+02  Y
   +6424.724-3.640731*T-8.2590486*T*LN(T)-.016814429*T**2+2.623131E-06*T**3
  -1081244*T**(-1)-1.2307E+25*T**(-9);  8.00000E+02  Y
   -4356.959+131.35088*T-28.4512*T*LN(T)-1.2307E+25*T**(-9);  3.00000E+03  N 
   !
   PARAMETER G(HCP_A3,SR:VA;0)  2.98150E+02  -7282.367+107.883879*T
  -23.905*T*LN(T)-.00461225*T**2-1.67477E-07*T**3-2055*T**(-1);  8.20000E+02 
   Y
   -13130.102+153.896104*T-30.0905432*T*LN(T)-.003251266*T**2
  +1.84189E-07*T**3+850134*T**(-1);  3.00000E+03  N  !
   PARAMETER G(HCP_A3,MG,SN:VA;0)  2.98150E+02  -30000-3*T;  3.00000E+03  N !
   PARAMETER G(HCP_A3,MG,SN:VA;1)  2.98150E+02  
    -11293.8-4.42051*T;  3.00000E+03  N   !
   PARAMETER G(HCP_A3,MG,SR:VA;0)  2.98150E+02  10000;  3.00000E+03  N  !
   PARAMETER G(HCP_A3,SN,SR:VA;0)  2.98150E+02  50000;  3.00000E+03  N  !


 PHASE LAVES_C14  %  2  2   1 !
    CONSTITUENT LAVES_C14  :MG,SR : MG,SR :  !

   PARAMETER G(LAVES_C14,MG:MG;0) 298.15 23372.694+3*GHSERMG;  3.00000E+03  N!
   PARAMETER G(LAVES_C14,SR:MG;0) 298.15 108788.02539+GHSERMG+2*GHSERSR;    
     3.00000E+03  N !
   PARAMETER G(LAVES_C14,MG:SR;0)  2.98140E+02  -2.9661163E+04+3.0307460E+00*T
   +2*GHSERMG+GHSERSR;  3.00000E+03  N !
   PARAMETER G(LAVES_C14,SR:SR;0) 298.15 21753.180201+3*GHSERSR;
     3.00000E+03  N !
   PARAMETER G(LAVES_C14,Sr,Mg:Sr;0)  2.98150E+02  +35000;
     3.00000E+03  N !


 PHASE LIQUID  %  1  1.0  !
    CONSTITUENT LIQUID  :MG,MG2SN,SN,SNSR2,SR :  !

   PARAMETER G(LIQUID,MG;0)  2.98150E+02  +GLIQMG;  3.00000E+03  N  !
   PARAMETER G(LIQUID,MG2SN;0)  2.98150E+02  -69092.9+97.6086*T
  -11.0957*T*LN(T)+2*GLIQMG+GLIQSN;  3.00000E+03  N  !
   PARAMETER G(LIQUID,SN;0)  1.00000E+02  +GLIQSN;  3.00000E+03  N  !
   PARAMETER G(LIQUID,SNSR2;0)  2.98150E+02  +GLIQSN+2*GLIQSR-140846.086
  +12.1011348*T;  3.00000E+03  N  !
   PARAMETER G(LIQUID,SR;0)  2.98150E+02  +GLIQSR;  3.00000E+03  N  !
   PARAMETER G(LIQUID,MG,MG2SN;0)  2.98150E+02  +6902.76-9.22726*T;  
  3.00000E+03  N  !
   PARAMETER G(LIQUID,SNSR2,MG2SN;0)  2.98150E+02  -15000;
  3.00000E+03  N  !
   PARAMETER G(LIQUID,MG,SN;0)  2.98150E+02  -31251+.74703*T;  3.00000E+03  
  N  !
   PARAMETER G(LIQUID,MG,SR;0)  2.98140E+02  -20857.771+6.3574506*T;
  3.00000E+03  N  !
   PARAMETER G(LIQUID,MG,SR;1)  2.98140E+02  -13008.376+4.7151616*T;
  3.00000E+03  N  !
   PARAMETER G(LIQUID,MG2SN,SN;0)  2.98150E+02  -8289.15-10.0268*T;  
  3.00000E+03  N  !
   PARAMETER G(LIQUID,SN,SNSR2;0)  2.98150E+02  -134258.124;  3.00000E+03  N !
   PARAMETER G(LIQUID,SN,SNSR2;1)  2.98150E+02  -38456.8766;  3.00000E+03  N !


 PHASE MG17SR2  %  2  17   2 !
    CONSTITUENT MG17SR2  :MG : SR :  !

   PARAMETER G(MG17SR2,MG:SR;0)  2.98140E+02  -90038.622+14.054411*T
   +17*GHSERMG+2*GHSERSR;  3.00000E+03  N !


 PHASE MG23SR6  %  2  23   6 !
    CONSTITUENT MG23SR6  :MG : SR :  !

   PARAMETER G(MG23SR6,MG:SR;0)  2.98140E+02  -222032.27+37.282840*T
   +23*GHSERMG+6*GHSERSR;  3.00000E+03  N !


 PHASE MG38SR9  %  2  38   9 !
    CONSTITUENT MG38SR9  :MG : SR :  !

   PARAMETER G(MG38SR9,MG:SR;0)  2.98140E+02  -338997.90+54.725979*T
   +38*GHSERMG+9*GHSERSR;  3.00000E+03  N !
   
   
 PHASE MG2SN  %  2 .666667   .333333 !
    CONSTITUENT MG2SN  :MG : SN :  !

   PARAMETER G(MG2SN,MG:SN;0)  2.98150E+02  -31024.2+110.918*T
  -21.8911*T*LN(T)-.003028*T**2-210000*T**(-1);   6.00000E+03   N REF0 !


 PHASE RHOMBOHEDRAL_A7  %  1  1.0  !
    CONSTITUENT RHOMBOHEDRAL_A7  :SN :  !

   PARAMETER G(RHOMBOHEDRAL_A7,SN;0)  1.00000E+02  -5923.517+122.765451*T
  -25.858*T*LN(T)+5.1185E-04*T**2-3.192767E-06*T**3+18440*T**(-1);  
  2.50000E+02  Y
   -3820.135+65.443315*T-15.961*T*LN(T)-.0188702*T**2+3.121167E-06*T**3
  -61960*T**(-1);  5.05080E+02  Y
   +4559.724+4.005269*T-8.2590486*T*LN(T)-.016814429*T**2+2.623131E-06*T**3
  -1081244*T**(-1)-1.2307E+25*T**(-9);  8.00000E+02  Y
   -6221.959+138.99688*T-28.4512*T*LN(T)-1.2307E+25*T**(-9);  3.00000E+03  N !


 PHASE SN3SR  %  2 .75   .25 !
    CONSTITUENT SN3SR  :SN : SR :  !

   PARAMETER G(SN3SR,SN:SR;0)  2.98150E+02  -49672.4322+126.179*T
  -25.809461*T*LN(T)-.00224295*T**2+28130.7659*T**(-1)-1.247283E-06*T**3;  
  8.80000E+02  Y
   -54671.6613+194.4451*T-35.46864*T*LN(T);  3.00000E+03  N  !


 PHASE SN3SR5  %  2 .375   .625 !
    CONSTITUENT SN3SR5  :SN : SR :  !

   PARAMETER G(SN3SR5,SN:SR;0)  2.98150E+02  -71480.9341+125.3258*T
  -25.730094*T*LN(T)-.00194164*T**2+28267.7619*T**(-1)-2.784854E-07*T**3;  
  1.51000E+03  Y
   -79670.6254+197.8164*T-35.378014*T*LN(T);  3.00000E+03  N  !


 PHASE SN4SR  %  2 .8   .2 !
    CONSTITUENT SN4SR  :SN : SR :  !

   PARAMETER G(SN4SR,SN:SR;0)  2.98150E+02  -41531.0928+120.6964*T
  -25.088644*T*LN(T)-.00250102*T**2+19048.4201*T**(-1)-2.537614E-07*T**3;  
  6.40000E+02  Y
   -42696.7818+144.9153*T-28.811579*T*LN(T);  3.00000E+03  N  !


 PHASE SN5SR3  %  2 .625   .375 !
    CONSTITUENT SN5SR3  :SN : SR :  !

   PARAMETER G(SN5SR3,SN:SR;0)  2.98150E+02  -65080.8357+121.942*T
  -25.217037*T*LN(T)-.00224243*T**2+20905.1981*T**(-1)-2.622423E-07*T**3;  
  1.10000E+03  Y
   -69316.6415+171.9536*T-32.203619*T*LN(T);  3.00000E+03  N  !


 PHASE SNSR  %  2 .5   .5 !
    CONSTITUENT SNSR  :SN : SR :  !

   PARAMETER G(SNSR,SN:SR;0)  2.98150E+02  -75659.1615+128.191*T
  -26.193235*T*LN(T)-.00143897*T**2+32033.1908*T**(-1)-3.389433E-07*T**3;  
  1.46000E+03  Y
   -82860.2259+192.2897*T-34.699023*T*LN(T);  3.00000E+03  N  !


 PHASE SNSR2_X  %  3 .333333   .333334   .333333 !
    CONSTITUENT SNSR2_X  :SN : SR : SR,MG :  !

   PARAMETER G(SNSR2_X,SN:SR:SR;0)  2.98150E+02  -69695.8102+119.94115*T
  -25.045419*T*LN(T)-.00160872*T**2+18279.7286*T**(-1)-1.466093E-07*T**3;  
  1.62000E+03  Y
   -76381.9295+176.635*T-32.562229*T*LN(T);  3.00000E+03  N  !
   PARAMETER G(SNSR2_X,SN:SR:MG;0)  2.98150E+02  -64706.51+134.8944*T
  -25.764278*T*LN(T)-8.47782E-04*T**2+54201.7448*T**(-1)-4.8882299E-07*T**3; 
   3.00000E+03  N  !


 PHASE TETRAGONAL_A6  %  1  1.0  !
    CONSTITUENT TETRAGONAL_A6  :SN :  !

   PARAMETER G(TETRAGONAL_A6,SN;0)  2.98150E+02  -468.135+57.181195*T
  -15.961*T*LN(T)-.0188702*T**2+3.121167E-06*T**3-61960*T**(-1);  
  5.05080E+02  Y
   +7911.724-4.256851*T-8.2590486*T*LN(T)-.016814429*T**2+2.623131E-06*T**3
  -1081244*T**(-1)-1.2307E+25*T**(-9);  8.00000E+02  Y
   -2869.959+130.73476*T-28.4512*T*LN(T)-1.2307E+25*T**(-9);  3.00000E+03  N !

 LIST_OF_REFERENCES
 NUMBER  SOURCE
  ! 
 
