$             ***************************************************
$             The thermodynamic parameters in the Mo-Ni-Zr system
$             ***************************************************    
$                               By Shimin Wang 
$             State Key Lab of Powder Metallurgy, Central South University
$                  Chansgha, Hunan, 410083, P.R. China
$                       Last update: May 5, 2017
$**************************************************************************
$ (I) The Ni-Zr system:Parameters for are taken from 
$ G.Ghosh, J.Mater. Res., 9 (1994) 598-617.
$ Parameters for Ni3Zr in [1994Gho] were re-assessed 
$ in "Thermodynamic analysis of the phase equilibria in the Nb-Ni-Zr 
$ system", T.Tokunaga, S.Matsumoto, H.Ohtani, M.Hasebe, J. Japan Inst. 
$ Met., 70 (2006) 741-749. (In Japanese)
$ (II) The Mo-Zr system: Perez, R. J., & Sundman, B.,CALPHAD,27(3)
$                        253-262(2003).
$ (III)The Mo-Ni system: Santhy, K., & Kumar, K. H.,Intermetallics,18(9), 
$                        1713-1721(2010).
$**************************************************************************
$                          -----------------------
$                          (I) Element description
$                          -----------------------
TEMP_LIM 298.15 6000 !
 ELEMENT /-   ELECTRON_GAS              0.0000E+00  0.0000E+00  0.0000E+00!
 ELEMENT VA   VACUUM                    0.0000E+00  0.0000E+00  0.0000E+00!
 ELEMENT MO   BCC_A2                    9.5940E+01  4.5890E+03  2.8560E+01!
 ELEMENT NI   FCC_A1                    5.8690E+01  4.7870E+03  2.9796E+01!
 ELEMENT ZR   HCP_A3                    9.1224E+01  5.5663E+03  3.9181E+01!
$*************************************************************************
$                          ---------------------
$                          (II) Type description
$                          ---------------------
DEFINE_SYSTEM_DEFAULT ELEMENT 2 !
DEFAULT_COMMAND DEF_SYS_ELEMENT VA /- !
TYPE_DEFINITION % SEQ *!
TYPE_DEFINITION & GES A_P_D BCC_A2 MAGNETIC  -1.0    4.00000E-01 !
TYPE_DEFINITION ( GES A_P_D FCC_A1 MAGNETIC  -3.0    2.80000E-01 !
TYPE_DEFINITION ) GES A_P_D HCP_A3 MAGNETIC  -3.0    2.80000E-01 !
TYPE_DEFINITION + GES A_P_D LAVES_C15 MAGNETIC  -3.0    2.80000E-01 !
$
$**************************************************************************
$                           ----------------
$                           (III) Unary data
$                           ----------------
$
$
$ Molybdenum (GHSERMO for BCC_A2)
$
 FUNCTION GHSERMO    2.98150E+02  -7746.302+131.9197*T-23.56414*T*LN(T)
     -.003443396*T**2+5.66283E-07*T**3+65812*T**(-1)-1.30927E-10*T**4;  
     2.89600E+03  Y
      -30556.41+283.559746*T-42.63829*T*LN(T)-4.849315E+33*T**(-9);  
     5.00000E+03  N !
$--------------------------------------------------------------------------
$
$ Nickel (GHSERNI FOR FCC_A1)
$
FUNCTION GHSERNI    2.98150E+02  -5179.159+117.854*T-22.096*T*LN(T)
     -.0048407*T**2;  1.72800E+03  Y
      -27840.655+279.135*T-43.1*T*LN(T)+1.12754E+31*T**(-9);  6.00000E+03  N 
     !
$
$ -------------------------------------------------------------------------
$
$ Zirconium  (GHSERZR for HCP_A3)
$
FUNCTION GHSERZR    2.98150E+02  -7827.595+125.64905*T-24.1618*T*LN(T)
     -.00437791*T**2+34971*T**(-1);  2.12800E+03  Y
      -26085.921+262.724183*T-42.144*T*LN(T)-1.342896E+31*T**(-9);  
     6.00000E+03  N !
$
$**************************************************************************
$                         ----------------------
$                         (IV) Phase description
$                         ----------------------
$
$ PHASE BCC_A2
 PHASE BCC_A2  %&  2 1   3 !
 CONSTITUENT BCC_A2  :MO,NI,ZR : VA :  !

$ PHASE FCC_A1
 PHASE FCC_A1  %(  2 1   1 !
    CONSTITUENT FCC_A1  :MO,NI,ZR : VA :  !

$ PHASE HCP_A3
 PHASE HCP_A3  %)  2 1   .5 !
    CONSTITUENT HCP_A3  :MO,NI,ZR : VA :  !
$ PHASE LIQUID
 PHASE LIQUID  %  1  1.0  !
    CONSTITUENT LIQUID  :MO,NI,ZR :  !

$ modified PHASE Mo2Zr
 PHASE LAVES_C15  %+  2 2   1 !
    CONSTITUENT LAVES_C15  :MO,ZR,NI : MO,ZR :  !

$ PHASE MONI 6:5:3
 PHASE MONI  %  3 .428571   .357143   .214286 !
    CONSTITUENT MONI  :NI : MO,NI : MO :  !
$modified PHASE MONI3
 PHASE MONI3  %  2 .75   .25 !
    CONSTITUENT MONI3  :MO,NI : MO,NI,ZR :  !
$ PHASE MONI4
 PHASE MONI4  %  2 .2   .8 !
    CONSTITUENT MONI4  :MO : NI :  !
$ PHASE NI10ZR7
 PHASE NI10ZR7  %  2 .575   .425 !
    CONSTITUENT NI10ZR7  :NI,ZR : VA,ZR :  !
$ PHASE NI11ZR9
 PHASE NI11ZR9  %  2 .55   .45 !
    CONSTITUENT NI11ZR9  :NI : ZR :  !
$modified PHASE NI1ZR1
 PHASE NI1ZR1  %  2 .5   .5 !
    CONSTITUENT NI1ZR1  :NI : ZR :  !
$ PHASE NI1ZR2
 PHASE NI1ZR2  %  2 .333   .667 !
    CONSTITUENT NI1ZR2  :NI : ZR :  !
$modified PHASE NI21ZR8
 PHASE NI21ZR8  %  2 .725   .275 !
    CONSTITUENT NI21ZR8  :NI : ZR :  !
$modified PHASE NI3ZR1
 PHASE NI3ZR1  %  2 .75   .25 !
    CONSTITUENT NI3ZR1  :NI,ZR : VA,ZR,MO :  !
$ PHASE NI5ZR1
 PHASE NI5ZR1  %  2 .833   .167 !
    CONSTITUENT NI5ZR1  :NI,ZR : VA,ZR :  !
$modified PHASE NI7ZR2 ???
 PHASE NI7ZR2  %  2 .78   .22 !
    CONSTITUENT NI7ZR2  :NI : ZR,MO:  !

$**************************************************************************
$                    --------------------------------------- 
$                    (V) LATTICE STABILITIES OF THE ELEMENTS
$                    ---------------------------------------
$
$ PHASE BCC_A2
$ ------------
  PARAMETER G(BCC_A2,MO:VA;0) 298.15  +GHSERMO;                   6000 N  !
$
 FUNCTION GNIBCC   298.15
    +3535.925+114.298*T-22.096*T*LN(T)-4.8407E-3*T**2;              1728.00 Y
    -19125.571+275.579*T-43.1*T*LN(T)+1127.54E28*T**(-9);           3000.00 N !
  PARAMETER G(BCC_A2,NI:VA;0) 298.15  +GNIBCC;                    6000 N  !
  PARAMETER TC(BCC_A2,NI:VA;0)   298.15  +575;                   6000 N  !
  PARAMETER BMAGN(BCC_A2,NI:VA;0) 298.15 +0.85;                 6000 N  !
$
 FUNCTION GBCCZR     2.98140E+02  -525.539+124.9457*T
    -25.607406*T*LN(T)-3.40084E-04*T**2-9.729E-09*T**3+25233*T**(-1)
    -7.6143E-11*T**4;  2.12800E+03  Y
    -30705.955+264.284163*T-42.144*T*LN(T)+1.276058E+32*T**(-9);
    6.00000E+03   N !
   PARAMETER G(BCC_A2,ZR:VA;0)  298.15  +GBCCZR;                  6000 N  !

$
$-------------------------------------------------------------------------
$ PHASE FCC_A1
$ ------------
 FUNCTION GMOFCC      298.15
    +7453.698+132.5497*T-23.56414*T*LN(T)-3.443396E-3*T**2+0.566283E-6*T**3
    +65812*T**(-1)-0.130927E-9*T**4;                                2896.00 Y
    -15356.41+284.189746*T-42.63829*T*LN(T)-4849.315E30*T**(-9);    5000.00 N !
  PARAMETER G(FCC_A1,MO:VA;0) 298.15  +GMOFCC;                    6000 N  !
$
  PARAMETER G(FCC_A1,NI:VA;0) 298.15  +GHSERNI;                   6000 N  !
  PARAMETER TC(FCC_A1,NI:VA;0)     2.98150E+02    +633;           6000 N  !
  PARAMETER BMAGN(FCC_A1,NI:VA;0)  2.98150E+02    +0.52;          6000 N !
$
 PARAMETER G(FCC_A1,ZR:VA;0)     300 +7600-.9*T+GHSERZR#;    6000 N !
$
$-------------------------------------------------------------------------
$ PHASE HCP_A3
$ ------------
 FUNCTION GHCPMO      298.15
   +3803.698+131.9197*T-23.56414*T*LN(T)-3.443396E-3*T**2+0.566283E-6*T**3
   +65812*T**(-1)-0.130927E-9*T**4;                                 2896.00 Y
   -19006.41+283.559746*T-42.63829*T*LN(T)-4849.315E30*T**(-9);     5000.00 N !
 PARAMETER G(HCP_A3,MO:VA;0)     298.15   +GHCPMO;                6000 N !
$
 PARAMETER G(HCP_A3,NI:VA;0)     300 +1046+1.255*T+GHSERNI#; 3000 N !
 PARAMETER TC(HCP_A3,NI:VA;0)    300 +633;                   6000 N !
 PARAMETER BMAGN(HCP_A3,NI:VA;0) 300 +0.52;                  6000 N !
$
 PARAMETER G(HCP_A3,ZR:VA;0)     300 +GHSERZR#;              6000 N !
$
$-------------------------------------------------------------------------
$ PHASE LIQUID
$ ------------
 FUNCTION GMOLIQ      298.15
    +34085.045+117.224788*T-23.56414*T*LN(T)-3.443396E-3*T**2+0.566283E-6*T**3
    +65812*T**(-1)-0.130927E-9*T**4+424.519E-24*T**7;               2896.00 Y
    +3538.963+271.6697*T-42.63829*T*LN(T);                          5000.00 N !
   PARAMETER G(LIQUID,MO;0)    298.15  +GMOLIQ;                   6000 N !
$
 FUNCTION GNILIQ   298.15
    +11235.527+108.457*T-22.096*T*LN(T)-4.8407E-3*T**2
    -382.318E-23*T**7;                                              1728.00 Y
    -9549.775+268.598*T-43.1*T*LN(T);                               3000.00 N !
   PARAMETER G(LIQUID,NI;0)    298.15  +GNILIQ;                   6000 N !
$
 FUNCTION GLIQZR     2.98140E+02  +18147.69-9.080812*T
     +1.6275E-22*T**7+GHSERZR#;  2.12800E+03  Y
     +17804.661-8.911574*T+1.342895E+31*T**(-9)+GHSERZR#;  6.00000E+03  N !
   PARAMETER G(LIQUID,ZR;0)  298.15  +GLIQZR;                     6000 N !
$
$**************************************************************************
$                       ----------------------------------
$                       (VI) Parameters for binary systems
$                       ----------------------------------
$
$ 6.1 The Mo-Ni system
$ --------------------
$
$PHASE LIQUID
   PARAMETER G(LIQUID,MO,NI;0) 298.15  -40224+15.75*T;            6000 N !
   PARAMETER G(LIQUID,MO,NI;1) 298.15  +3347;                     6000 N !
$
$PHASE BCC_A2
  PARAMETER G(BCC_A2,MO,NI:VA;0) 298.15  +42679;                  6000 N !
  PARAMETER G(BCC_A2,MO,NI:VA;1) 298.15  +4825;                   6000 N  !
$
$PHASE FCC_A1
  PARAMETER G(FCC_A1,MO,NI:VA;0) 298.15  -3765;                   6000 N  !
  PARAMETER G(FCC_A1,MO,NI:VA;1) 298.15  +12548;                  6000 N  !
$
$PHASE MONI
   PARAMETER G(MONI,NI:MO:MO;0)    298.15  -4687.48+26.336*T-3.408*T*LN(T)
      +0.4285714*GHSERNI+0.5714286*GHSERMO;                       6000 N !
   PARAMETER G(MONI,NI:NI:MO;0)    298.15  -1402.8-7.908*T+1.165*T*LN(T)
      +0.4285714*GHSERNI+0.3571429*GNIBCC+0.2142857*GHSERMO;      6000 N !
$
$PHASE MONI3
   PARAMETER G(MONI3,NI:NI;0)    298.15  GHSERNI+5000;            6000 N !
   PARAMETER G(MONI3,MO:MO;0)    298.15  GHSERMO+45000;           6000 N !
   PARAMETER G(MONI3,NI:MO;0)    298.15  -3363-0.02*T
                              +0.75*GHSERNI+0.25*GHSERMO;         6000 N !
   PARAMETER G(MONI3,MO:NI;0)    298.15  +53363+0.02*T
                              +0.25*GHSERNI+0.75*GHSERMO;         6000 N  !
   PARAMETER G(MONI3,MO,NI:NI;0) 298.15  -1020;                   6000 N !
   PARAMETER G(MONI3,MO,NI:MO;0) 298.15  -1020;                   6000 N !
   PARAMETER G(MONI3,NI:MO,NI;0) 298.15  -992;                    6000 N  !
   PARAMETER G(MONI3,MO:MO,NI;0) 298.15  -992;                    6000 N  !
$
$PHASE MONI4
   PARAMETER G(MONI4,MO:NI;0)   298.15  -3354.5-0.03*T
                               +0.2*GHSERMO+0.8*GHSERNI;          6000 N  !
$
$------------------------------------------------------------------------
$  6.2 The Mo-Zr system
$  --------------------
$
$PHASE LIQUID
   PARAMETER G(LIQUID,MO,ZR;0) 298.15   -24055.120+8.146158*T;   6000 N  !
   PARAMETER G(LIQUID,MO,ZR;1) 298.15   -5132.1665+4.8041224*T;  6000 N  !
$
$PHASE BCC_A2
   PARAMETER G(BCC_A2,MO,ZR:VA;0)  298.15  +17935.985+3.102*T;   6000 N  !
   PARAMETER G(BCC_A2,MO,ZR:VA;1)  298.15  -990.9911+4.299*T;    6000 N  !
$
$PHASE HCP_A3
 PARAMETER G(HCP_A3,MO,ZR:VA;0)  298.15   +26753.79+4.556*T;     6000 N  !
$
$PHASE LAVES_C15
  PARAMETER G(LAVES_C15,MO:MO;0)  298.15  +3*GHSERMO+15000;      6000 N  !
  PARAMETER G(LAVES_C15,ZR:ZR;0)  298.15  +3*GHSERZR+15000;      6000 N  !
  PARAMETER G(LAVES_C15,MO:ZR;0)  298.15  
              +2*GHSERMO+GHSERZR-21734.78+0.1441789*T;           6000 N  !
  PARAMETER G(LAVES_C15,ZR:MO;0)  298.15  
              +GHSERMO+2*GHSERZR+21734.78-0.1441789*T;           6000 N  !
  PARAMETER G(LAVES_C15,MO,ZR:*;0)   298.15  +100000;            6000 N  !
  PARAMETER G(LAVES_C15,*:MO,ZR;0)   298.15  +60000;             6000 N  !
$
$------------------------------------------------------------------------
$  6.3 The Ni-Zr system
$  --------------------
$
$PHASE LIQUID
   PARAMETER G(LIQUID,NI,ZR;0)      300     -200450+10.35*T; 6000 N !
   PARAMETER G(LIQUID,NI,ZR;1)      300     -42925+3.58*T;   6000 N !
   PARAMETER G(LIQUID,NI,ZR;2)      300     -34000+32.37*T;  6000 N !
$
$
$PHASE BCC_A2
 PARAMETER G(BCC_A2,NI,ZR:VA;0)  300 -147500+2.3*T;          6000 N !
 PARAMETER G(BCC_A2,NI,ZR:VA;1)  300 -43500-11.6*T;          6000 N !
$
$PHASE FCC_A1
 PARAMETER G(FCC_A1,NI,ZR:VA;0)  300 -130000+2*T;            6000 N !
 PARAMETER G(FCC_A1,NI,ZR:VA;1)  300 -25000+2.5*T;           6000 N !
$
$PHASE HCP_A3
 PARAMETER G(HCP_A3,NI,ZR:VA;0)  300 -68350+3.5*T;           6000 N !
 PARAMETER G(HCP_A3,NI,ZR:VA;1)  300 +10000-6.6*T;           6000 N !
$
$PHASE NI5ZR1
 PARAMETER G(NI5ZR1,NI:VA;0)  300 +29566-8.428*T
                              +.833*GHSERNI#;                6000 N !
 PARAMETER G(NI5ZR1,ZR:VA;0)  300 +32493-8.22*T
                              +.833*GBCCZR;    6000 N !
 PARAMETER G(NI5ZR1,NI:ZR;0)  300 -33205+0.95*T
              +.833*GHSERNI#+.167*GBCCZR;  6000 N !
 PARAMETER G(NI5ZR1,ZR:ZR;0)  300 +7600-0.9*T
                              +GHSERZR;                     6000 N !
 PARAMETER G(NI5ZR1,NI,ZR:VA;0)  300 +76500;                 6000 N !
 PARAMETER G(NI5ZR1,NI:ZR,VA;0)  300 -19475+1.25*T;          6000 N !
 PARAMETER G(NI5ZR1,NI,ZR:ZR;0)  300 +7850;                  6000 N !
$
$PHASE NI7ZR2
 PARAMETER G(NI7ZR2,NI:ZR;0)  300 -40775+0.3*T
                  +.78*GHSERNI#+.22*GBCCZR;    6000 N !
$
$PHASE NI3ZR1 from different literature
 PARAMETER G(NI3ZR1,NI:VA;0)  300 +10000+1.25*T
                               +.75*GHSERNI#;                6000 N !
 PARAMETER G(NI3ZR1,ZR:VA;0)  300 +47425+5.68*T
                               +.75*GBCCZR;                6000 N !
 PARAMETER G(NI3ZR1,NI:ZR;0)  300 -43410+0.88*T
                 +.75*GHSERNI#+.25*GBCCZR;   6000 N ! 
 PARAMETER G(NI3ZR1,ZR:ZR;0)  300 +GHSERZR;            6000 N !
 PARAMETER G(NI3ZR1,NI,ZR:VA;0)  300 +75500;                 6000 N !
 PARAMETER G(NI3ZR1,NI:ZR,VA;0)  300 -25000+4.5*T;           6000 N !
 PARAMETER G(NI3ZR1,NI,ZR:ZR;0)  300 +7555;                  6000 N !
$
$PHASE NI21ZR8
 PARAMETER G(NI21ZR8,NI:ZR;0)  300 -44625+0.5*T
                  +.725*GHSERNI#+.275*GBCCZR; 6000 N !
$
$PHASE NI10ZR7
 PARAMETER G(NI10ZR7,NI:VA;0)  300 +20051-5.8167*T
                               +.575*GHSERNI#;               6000 N !
 PARAMETER G(NI10ZR7,ZR:VA;0)  300 +22075-5.674*T
               +.575*GBCCZR;               6000 N !
$different from literature
 PARAMETER G(NI10ZR7,NI:ZR;0)  300 -50525-0.1*T
           +.575*GHSERNI#+.425*GHSERZR; 6000 N !
 PARAMETER G(NI10ZR7,ZR:ZR;0)  300 +8750-2.556*T
                               +GBCCZR;           6000 N !
 PARAMETER G(NI10ZR7,NI,ZR:VA;0)  300 +56000;                6000 N !
 PARAMETER G(NI10ZR7,NI:ZR,VA;0)  300 -19250;                6000 N !
 PARAMETER G(NI10ZR7,NI,ZR:ZR;0)  300 +8500;                 6000 N !
$
$PHASE NI11ZR9
 PARAMETER G(NI11ZR9,NI:ZR;0)  300 -49900-0.73*T
             +.55*GHSERNI#+.45*GBCCZR;   6000 N !
$
$PHASE NI1ZR1
 PARAMETER G(NI1ZR1,NI:ZR;0)  300 -52275+0.6*T
                   +.5*GHSERNI#+.5*GBCCZR;      6000 N !
$
$PHASE NI1ZR2
 PARAMETER G(NI1ZR2,NI:ZR;0)  300 -40650+0.15*T
            +.333*GHSERNI#+.667*GBCCZR;  6000 N !
$
$ -------------------------------------------------------------------------
$                        -------------------------  
$                        (VII) The Mo-Ni-Zr system
$                        -------------------------
$
$ PHASE LIQUID
 PARAMETER L(LIQUID,MO,NI,ZR;0) 298.15 -9641.94 ; 6000.0 N !
 PARAMETER L(LIQUID,MO,NI,ZR;1) 298.15 1195.88; 6000.0 N !
 PARAMETER L(LIQUID,MO,NI,ZR;2) 298.15 -2809.81; 6000.0 N !
$
$ PHASE T1
 PHASE T1 % 2 0.6667 0.3333 !
 CONST T1 :ZR:MO,NI: !
 PARAMETER G(T1,ZR:MO;0) 298.15 -2813.70
+0.6667*GHSERZR+0.3333*GHSERMO; 6000.0 N !
 PARAMETER G(T1,ZR:NI;0) 298.15 -38326.21
+0.6667*GHSERZR+0.3333*GHSERNI; 6000.0 N !
 PARAMETER G(T1,ZR:MO,NI;0) 298.15 -1660.21; 6000.0 N !
$
$ PHASE T2
 PHASE T2 % 3 0.65 0.273 0.077 !
 CONST T2 :ZR:MO:NI: !
 PARAMETER G(T2,ZR:MO:NI;0) 298.15 -13255.1-0.5325*T
+0.65*GHSERZR+0.273*GHSERMO+0.077*GHSERNI; 6000.0 N !

$ PHASE FCC_A1
$ PARAMETER G(FCC_A1,MO,NI,ZR:VA;0) 298.15  577491.41
$+11.87*T;  6000 N !
$ PARAMETER G(FCC_A1,MO,NI,ZR:VA;1) 298.15  -364753.6
$-26.16*T;   6000 N !
$ PHASE BCC_A2
$ PARAMETER G(BCC_A2,MO,NI,ZR:VA;0) 298.15  79719.8191;   6000 N  !
$
$ PHASE FCC_A1
 PARAMETER L(FCC_A1,MO,NI,ZR:VA;0) 298.15  577491.41+11.87*T;  6000 N  !
 PARAMETER L(FCC_A1,MO,NI,ZR:VA;1) 298.15  -364753.6-26.16*T;  6000 N  !
 PARAMETER G(FCC_A1,MO,NI,ZR:VA;2) 298.15  0;   6000 N  !
$---------------------------------------------------------------
$ PHASE NI7ZR2
 PARAMETER G(NI7ZR2,NI:MO;0)  300 141991.08
                      +0.78*GHSERNI+0.22*GHSERMO;   6000 N  !
 PARAMETER G(NI7ZR2,NI:MO,ZR;0)  300 -212746.61+40.51*T;   6000 N !
$ PHASE MONI3
 PARAMETER G(MONI3,MO:ZR;0)  300 +0.75*GHSERMO+0.25*GHSERZR;
   6000 N !
 PARAMETER G(MONI3,NI:ZR;0)  300 +0.75*GHSERNI+0.25*GHSERZR; 
  6000 N !
 PARAMETER G(MONI3,NI:MO,ZR;0)  300 -44003.83;   6000 N !
$ PHASE MO2ZR
 PARAMETER G(LAVES_C15,NI:ZR;0)  300 2*GHSERNI
+1*GHSERZR;   6000 N !

 PARAMETER G(LAVES_C15,MO,NI:ZR;0) 300 -40831.51-93.30*T;   
6000 N !
$ PHASE NI3ZR1
PARAMETER G(NI3ZR1,NI:MO,ZR;0)  300 1292.55-61.47*T;   6000 N !

 PARAMETER G(LAVES_C15,NI:MO;0)  300 2*GHSERNI
+1*GHSERMO+5000;   6000 N !
PARAMETER G(NI3ZR1,NI:MO;0)  300 0.75*GHSERNI
+0.25*GHSERMO-33000+75*T;   6000 N !
PARAMETER G(NI3ZR1,ZR:MO;0)  300 0.75*GHSERZR
+0.25*GHSERMO+50000;   6000 N !
$---------------------------------------------------------------
$
$DATABASE_INFO 'The Mo-Ni-Zr system'!
