
$ Database file written 2018- 10-21 by Huixia Xu in DTU  
 ELEMENT /-   ELECTRON_GAS              0.0000E+00  0.0000E+00  0.0000E+00!
 ELEMENT VA   VACUUM                    0.0000E+00  0.0000E+00  0.0000E+00!
 ELEMENT CR   BCC_A2                    5.1996E+01  4.0500E+03  2.3543E+01!
 ELEMENT O    1/2_MOLE_O2(G)            1.5999E+01  4.3410E+03  1.0252E+02!
 ELEMENT Y    HCP_A3                    8.8906E+01  5.9664E+03  4.4434E+01!
 
 SPECIES CR+2                        CR1/+2!
 SPECIES CR+3                        CR1/+3!
 SPECIES CR+4                        CR1/+4!
 SPECIES CR+5                        CR1/+5!
 SPECIES CR+6                        CR1/+6!
 SPECIES CR2                         CR2!
 SPECIES CR2O2                       CR2O2!
 SPECIES CR2O3                       CR2O3!
 SPECIES CR3O4                       CR3O4!
 SPECIES CRO                         CR1O1!
 SPECIES CRO2                        CR1O2!
 SPECIES CRO3                        CR1O3!
 SPECIES O-2                         O1/-2!
 SPECIES O2                          O2!
 SPECIES O3                          O3!
 SPECIES Y+3                         Y1/+3!
 SPECIES Y2O                         O1Y2!
 SPECIES Y2O2                        O2Y2!
 SPECIES YO                          O1Y1!
 SPECIES YO15                        O1.5Y1!
 SPECIES YO2                         O2Y1!
 

 FUNCTION GHSEROO   298.15 -3480.87-25.503038*T-11.136*T*LN(T)
     -.005098888*T**2+6.61846E-07*T**3-38365*T**(-1); 1000 Y
      -6568.763+12.65988*T-16.8138*T*LN(T)-5.95798E-04*T**2+6.781E-09*T**3
     +262905*T**(-1); 3300 Y
      -13986.728+31.259625*T-18.9536*T*LN(T)-4.25243E-04*T**2
     +1.0721E-08*T**3+4383200*T**(-1); 6000 N !
 FUNCTION F7397T    298.15 +243206.529-42897.0876*T**(-1)-20.7513421*T
     -21.0155542*T*LN(T)+1.26870532E-04*T**2-1.23131285E-08*T**3; 2950 Y
      +252301.473-3973170.33*T**(-1)-51.974853*T-17.2118798*T*LN(T)
     -5.41356254E-04*T**2+7.64520703E-09*T**3; 6000 N !
 FUNCTION F7683T    298.15 +133772.042-11328.9959*T**(-1)-84.8602165*T
     -19.8314069*T*LN(T)-.0392015696*T**2+7.90727187E-06*T**3; 600 Y
      +120765.524+997137.156*T**(-1)+120.113376*T-51.8410152*T*LN(T)
     -.00353983136*T**2+3.20640143E-07*T**3; 1500 Y
      +115412.196+1878139.02*T**(-1)+164.679664*T-58.069736*T*LN(T)
     -2.84399032E-04*T**2+5.95650279E-10*T**3; 6000 N !
 FUNCTION F7491T    298.15 +390765.331-31.5192158*T-21.36083*T*LN(T)
     +7.253215E-04*T**2-1.588679E-07*T**3+10285.15*T**(-1); 1100 Y
      +393886.928-44.1074654*T-19.96003*T*LN(T)+.001513089*T**2
     -4.23648333E-07*T**3-722515*T**(-1); 6000 N !
 FUNCTION F7763T    298.15 +598511.403+41.5353212*T-40.56798*T*LN(T)
     +.004961847*T**2-1.61216717E-06*T**3+154422.85*T**(-1); 800 Y
      +613345.232-104.207991*T-19.7643*T*LN(T)-.007085085*T**2
     -4.69883E-07*T**3-1738066.5*T**(-1); 1400 Y
      +642608.843-369.28626*T+17.64743*T*LN(T)-.02767321*T**2
     +1.605906E-06*T**3-5831655*T**(-1); 2300 Y
      +553119.895+159.188555*T-52.07969*T*LN(T)-.004229401*T**2
     +1.5939925E-07*T**3+14793625*T**(-1); 3900 Y
      +347492.34+623.137623*T-105.0428*T*LN(T)+3.9699545E-04*T**2
     +1.51783483E-07*T**3+1.4843765E+08*T**(-1); 5800 Y
      -484185.055+2598.25559*T-334.7145*T*LN(T)+.028597625*T**2
     -4.97520167E-07*T**3+7.135805E+08*T**(-1); 6000 N !
 FUNCTION F7705T    298.15 +176483.869-31.9513659*T-30.2897*T*LN(T)
     -.00607059*T**2+9.229905E-07*T**3+35263.135*T**(-1); 900 Y
      +170853.62+32.1684007*T-39.74749*T*LN(T)+.00119977*T**2
     -1.52515733E-07*T**3+682877*T**(-1); 4000 Y
      +307209.502-414.237405*T+14.48744*T*LN(T)-.008463125*T**2
     +1.722975E-07*T**3-64209900*T**(-1); 8400 Y
      -403765.708+805.224944*T-121.5329*T*LN(T)+.003139382*T**2
     -1.36845867E-08*T**3+6.35563E+08*T**(-1); 10000 N !
 FUNCTION F7713T    298.15 -121743.409-9.3513573*T-36.29523*T*LN(T)
     -.01993456*T**2+3.5091E-06*T**3+193490.75*T**(-1); 700 Y
      -130807.622+121.470522*T-56.35306*T*LN(T)-3.3428045E-04*T**2
     -6.06589333E-08*T**3+956146*T**(-1); 3400 Y
      -110536.941+26.3566562*T-44.22742*T*LN(T)-.003455125*T**2
     +8.58097667E-08*T**3-5175510*T**(-1); 6000 N !
 FUNCTION F7726T    298.15 -342387.72+103.718924*T-52.84504*T*LN(T)
     -.02759153*T**2+4.86524667E-06*T**3+358400*T**(-1); 700 Y
      -356869.109+299.291672*T-82.53502*T*LN(T)-7.979305E-05*T**2
     -1.88415667E-09*T**3-20.628*T**(-1); 4000 Y
      -362423.325+334.459538*T-87.10177*T*LN(T)+.001170557*T**2
     -5.86174E-08*T**3+1764429*T**(-1); 6000 N !
 FUNCTION F14722T   298.15 +413926.156+43.942359*T-34.19791*T*LN(T)
     +.0122297*T**2-2.14534333E-06*T**3+97071.5*T**(-1); 700 Y
      +417505.307-13.2762864*T-25.29082*T*LN(T)+.002768476*T**2
     -3.169895E-07*T**3-157006.6*T**(-1); 2000 Y
      +439627.78-100.082079*T-14.64876*T*LN(T)+.001182233*T**2
     -3.39037833E-07*T**3-7693105*T**(-1); 3300 Y
      +656873.926-957.210194*T+92.15071*T*LN(T)-.022050485*T**2
     +6.04918167E-07*T**3-90137500*T**(-1); 5500 Y
      -81672.0087+877.446829*T-122.4532*T*LN(T)+.005666115*T**2
     -6.61492667E-08*T**3+3.865857E+08*T**(-1); 10000 N !
 FUNCTION F12945T   298.15 -18834.6011+47.2728187*T-49.14357*T*LN(T)
     -.007582635*T**2+1.2067E-06*T**3+211591.55*T**(-1); 900 Y
      -23590.8983+106.946886*T-58.08361*T*LN(T)-2.2921245E-05*T**2
     +7.790445E-10*T**3+695520*T**(-1); 6000 N !
 FUNCTION F12929T   298.15 -55980.1334-24.7804591*T-30.58571*T*LN(T)
     -.005797885*T**2+9.044075E-07*T**3+92955.75*T**(-1); 900 Y
      -62402.7508+43.7949244*T-40.60318*T*LN(T)+.0014897095*T**2
     -1.41268333E-07*T**3+896318.5*T**(-1); 3100 Y
      +22970.3078-236.507016*T-6.632106*T*LN(T)-.004295709*T**2
     +3.30261667E-08*T**3-38281150*T**(-1); 5900 Y
      +78439.9263-450.3653*T+19.37683*T*LN(T)-.00859432*T**2
     +1.53217517E-07*T**3-45013010*T**(-1); 9600 Y
      -949291.433+1103.17067*T-151.1803*T*LN(T)+.004000447*T**2
     -2.13031E-08*T**3+1.118062E+09*T**(-1); 10000 N !
 FUNCTION F13270T   298.15 -575737.712+51.4042333*T-49.55549*T*LN(T)
     -.030210885*T**2+5.27799667E-06*T**3+255509.3*T**(-1); 700 Y
      -591679.029+265.724012*T-82.06371*T*LN(T)-2.6169375E-04*T**2
     +1.0952625E-08*T**3+1742125.5*T**(-1); 4500 Y
      -594803.763+277.512452*T-83.52789*T*LN(T)+4.9195245E-05*T**2
     -1.17628333E-09*T**3+3139224*T**(-1); 6000 N !
 FUNCTION F13266T   298.15 -453353.172+38.0172466*T-44.87379*T*LN(T)
     -.011836705*T**2+2.00650833E-06*T**3+281931.45*T**(-1); 800 Y
      -459941.788+124.969156*T-58.0167*T*LN(T)-3.724498E-05*T**2
     +1.29613517E-09*T**3+910973.5*T**(-1); 6000 N !
 FUNCTION GHSERCR   298.15 -8856.94+157.48*T-26.908*T*LN(T)+.00189435*T**2
     -1.47721E-06*T**3+139250*T**(-1); 2180 Y
      -34869.344+344.18*T-50*T*LN(T)-2.88526E+32*T**(-9); 6000 N !
 FUNCTION GCRFCC    298.15 +GHSERCR#+7284+.163*T; 1519 N !
 FUNCTION GCRHCP    298.15 -4418.94+157.48*T-26.908*T*LN(T)+.00189435*T**2
     -1.47721E-06*T**3+139250*T**(-1); 2180 Y
      -30431.344+344.18*T-50*T*LN(T)-2.88526E+32*T**(-9); 6000 N !
 FUNCTION GCRCUB    298.15 +7042.06+158.1076*T-26.908*T*LN(T)+.00189435*T**2
     -1.47721E-06*T**3+139250*T**(-1); 2180 Y
      -18970.344+344.8076*T-50*T*LN(T)-2.88526E+32*T**(-9); 6000 N !
 FUNCTION GCRBCCA1  298.15 +2230.06+160.1996*T-26.908*T*LN(T)+.00189435*T**2
     -1.47721E-06*T**3+139250*T**(-1); 2180 Y
      -23782.344+346.8996*T-50*T*LN(T)-2.88526E+32*T**(-9); 6000 N !
 FUNCTION GCR_L     298.15 +15483.015+146.059775*T-26.908*T*LN(T)
     +.00189435*T**2-1.47721E-06*T**3+139250*T**(-1)+2.37615E-21*T**7; 2180 Y
      -16459.984+335.616317*T-50*T*LN(T); 6000 N !
 FUNCTION GHSERYY   100 -8011.09379+128.572856*T-25.6656992*T*LN(T)
     -.00175716414*T**2-4.17561786E-07*T**3+26911.509*T**(-1); 1000 Y
      -7179.74574+114.497104*T-23.4941827*T*LN(T)-.0038211802*T**2
     -8.2534534E-08*T**3; 1795.15 Y
      -67480.7761+382.124727*T-56.9527111*T*LN(T)+.00231774379*T**2
     -7.22513088E-08*T**3+18077162.6*T**(-1); 3700 N !
 FUNCTION GYYBCC    100 -833.658863+123.667346*T-25.5832578*T*LN(T)
     -.00237175965*T**2+9.10372497E-09*T**3+27340.0687*T**(-1); 1000 Y
      -1297.79829+134.528352*T-27.3038477*T*LN(T)-5.41757644E-04*T**2
     -3.05012175E-07*T**3; 1795.15 Y
      +15389.4975+.981325399*T-8.88296647*T*LN(T)-.00904576576*T**2
     +4.02944768E-07*T**3-2542575.96*T**(-1); 3700 N !
 FUNCTION GYYLIQ    100 +2098.50738+119.41873*T-24.6467508*T*LN(T)
     -.00347023463*T**2-8.12981167E-07*T**3+23713.7332*T**(-1); 1000 Y
      +7386.44846+19.4520171*T-9.0681627*T*LN(T)-.0189533369*T**2
     +1.7595327E-06*T**3; 1795.15 Y
      -12976.5957+257.400783*T-43.0952*T*LN(T); 3700 N !
 FUNCTION GCR2O3  298.15 -1164542+728.56*T-119.8*T*LN(T)-.00497*T**2
     +1050000*T**(-1); 6000 N !
 FUNCTION GCR1O1    298.15 +.5*GCR2O3#-.5*GHSEROO#+255269-53.82*T; 6000 N !
 FUNCTION GCRO0     298.15 +108305+GCR2O3#+.666666667*GHSERCR#; 6000 N !
 FUNCTION GCR3O4    298.15 +1.5*GCR2O3#-.5*GHSEROO#+280045-93.76*T; 6000 N !
 FUNCTION GCR1O1_L  298.15 +.5*GCR2O3#-.5*GHSEROO#+339673-121.4*T; 6000 N !
 FUNCTION GCR2O3_L  298.15 +GCR2O3#+439078-169*T; 6000 N !
 FUNCTION GCCYO15   298.15 -990900+381.86*T-62.85*T*LN(T)-.0025*T**2
     +1172000*T**(-1)-59000000*T**(-2); 6000 N !
 FUNCTION GHHYO15   298.15 -977270+376.86*T-62.85*T*LN(T)-.0028*T**2
     +1172000*T**(-1)-59000000*T**(-2); 6000 N !
 FUNCTION GY2O3LIQ  298.15 +2*GYYLIQ#+3*GHSEROO#-1824600+246*T; 6000 N !
 FUNCTION GYCRO3    298.15 -1635130.05+682.789909*T-114.1586*T*LN(T)
-0.00626760316*T**2+991861.047*T**(-1); 6000 N !
 FUNCTION UN_ASS 298.15 +0; 300 N !
 
 TYPE_DEFINITION % SEQ *!
 DEFINE_SYSTEM_DEFAULT ELEMENT 2 !
 DEFAULT_COMMAND DEF_SYS_ELEMENT VA /- !


 PHASE GAS:G %  1  1.0  !
    CONSTITUENT GAS:G :CR,CR2,CRO,CRO2,CRO3,O,O2,O3,Y,Y2O,Y2O2,YO,YO2 :  !

   PARAMETER G(GAS,CR;0)                  298.15 +F7491T#+RTLNP#; 6000 N 
  REF0 !
   PARAMETER G(GAS,CR2;0)                 298.15 +F7763T#+RTLNP#; 6000 N 
  REF0 !
   PARAMETER G(GAS,CRO;0)                 298.15 +F7705T#+RTLNP#; 6000 N 
  REF0 !
   PARAMETER G(GAS,CRO2;0)                298.15 +F7713T#+RTLNP#; 6000 N 
  REF0 !
   PARAMETER G(GAS,CRO3;0)                298.15 +F7726T#+RTLNP#; 6000 N 
  REF0 !
   PARAMETER G(GAS,O;0)                   298.15 +F7397T#+RTLNP#; 6000 N 
  REF0 !
   PARAMETER G(GAS,O2;0)                  298.15 +2*GHSEROO#+RTLNP#; 6000 N 
  REF0 !
   PARAMETER G(GAS,O3;0)                  298.15 +F7683T#+RTLNP#; 6000 N 
  REF0 !
   PARAMETER G(GAS,Y;0)                   298.15 +F14722T#+RTLNP#; 6000 N 
  REF0 !
   PARAMETER G(GAS,Y2O;0)                 298.15 +F12945T#+RTLNP#; 6000 N 
  REF0 !
   PARAMETER G(GAS,Y2O2;0)                298.15 +F13270T#+RTLNP#; 6000 N 
  REF0 !
   PARAMETER G(GAS,YO;0)                  298.15 +F12929T#+RTLNP#; 6000 N 
  REF0 !
   PARAMETER G(GAS,YO2;0)                 298.15 +F13266T#+RTLNP#; 6000 N 
  REF0 !


 PHASE IONIC_LIQUID:Y %  2 2   2.99623 !
    CONSTITUENT IONIC_LIQUID:Y :CR+2,CR+3,Y+3 : O-2,VA :  !

   PARAMETER G(IONIC_LIQUID,CR+2:O-2;0)   298.15 +2*GCR1O1_L#; 6000 N REF0 !
   PARAMETER G(IONIC_LIQUID,CR+3:O-2;0)   298.15 +GCR2O3_L#; 6000 N REF0 !
   PARAMETER G(IONIC_LIQUID,Y+3:O-2;0)    298.15 +GY2O3LIQ#; 6000 N REF0 !
   PARAMETER G(IONIC_LIQUID,CR+2:VA;0)    298.15 +GCR_L#; 6000 N REF0 !
   PARAMETER G(IONIC_LIQUID,CR+3:VA;0)    298.15 +2*GCR_L#+GCR2O3_L#
  -3*GCR1O1_L#; 6000 N REF0 !
   PARAMETER G(IONIC_LIQUID,Y+3:VA;0)     298.15 +GYYLIQ#; 6000 N REF0 !
   PARAMETER G(IONIC_LIQUID,CR+2,Y+3:O-2;0) 298.15 -124890.423; 6000 N REF0 !
   PARAMETER G(IONIC_LIQUID,CR+2,Y+3:O-2;1) 298.15 -89245.9568; 6000 N REF0 !
   PARAMETER G(IONIC_LIQUID,CR+2,Y+3:O-2;2) 298.15 -205190.375; 6000 N REF0 !
   PARAMETER G(IONIC_LIQUID,CR+2:O-2,VA;0) 298.15 +121000; 6000 N REF0 !
   PARAMETER G(IONIC_LIQUID,CR+3,Y+3:O-2;0) 298.15 -124890.423; 6000 N REF0 !
   PARAMETER G(IONIC_LIQUID,CR+3,Y+3:O-2;1) 298.15 -89245.9568; 6000 N REF0 !
   PARAMETER G(IONIC_LIQUID,CR+3,Y+3:O-2;2) 298.15 -205190.375; 6000 N REF0 !
   PARAMETER G(IONIC_LIQUID,CR+3:O-2,VA;0) 298.15 +121000; 6000 N REF0 !
   PARAMETER G(IONIC_LIQUID,Y+3:O-2,VA;0) 298.15 +6900; 6000 N REF0 !
   PARAMETER G(IONIC_LIQUID,Y+3:O-2,VA;1) 298.15 -17000; 6000 N REF0 !

 PHASE LIQUID  %  1  1.0  !
    CONSTITUENT LIQUID  :CR,Y :  !

   PARAMETER G(LIQUID,CR;0)               298.15 +GCR_L#; 6000 N REF2 !
   PARAMETER G(LIQUID,Y;0)                100 +GYYLIQ#; 3700 N REF2 !
   PARAMETER G(LIQUID,CR,Y;0)     298.15 32000;  6000  N  REF0  !
   PARAMETER G(LIQUID,CR,Y;1)     298.15 8500;  6000  N  REF0  !

 TYPE_DEFINITION & GES A_P_D BCC_A2 MAGNETIC  -1.0    4.00000E-01 !
 PHASE BCC_A2  %&  2 1   3 !
    CONSTITUENT BCC_A2  :CR,Y : O,VA% :  !

   PARAMETER G(BCC_A2,CR:O;0)             298.15 +GHSERCR#+3*GHSEROO#
+243*T; 6000 N REF0 !
   PARAMETER G(BCC_A2,Y:O;0)              298.15 +GYYBCC#+3*GHSEROO#
 -800000+360*T; 2300 N REF0 !
   PARAMETER TC(BCC_A2,CR:VA;0)           298.15 -311.5; 6000 N REF0 !
   PARAMETER BMAGN(BCC_A2,CR:VA;0)        298.15 -.008; 6000 N REF0 !
   PARAMETER G(BCC_A2,CR:VA;0)            298.15 +GHSERCR#; 6000 N REF0 !
   PARAMETER G(BCC_A2,Y:VA;0)             298.15 +GYYBCC#; 3700 N REF0 !
   PARAMETER G(BCC_A2,CR:O,VA;0)          298.15 -709542; 6000 N REF0 !
   PARAMETER G(BCC_A2,Y:O,VA;0)           298.15 -1681600-103.08*T; 
2300 N REF0 !
   PARAMETER G(BCC_A2,Y:O,VA;1)           298.15 -697000; 2300 N REF0 !
   PARAMETER G(BCC_A2,CR:VA;0)            298.15 +GHSERCR#; 6000 N REF1 !
   PARAMETER TC(BCC_A2,CR:VA;0)           298.15 -311.5; 6000 N REF2 !
   PARAMETER BMAGN(BCC_A2,CR:VA;0)        298.15 -.008; 6000 N REF2 !
   PARAMETER G(BCC_A2,CR,Y:VA;0)            298.15 69000; 6000 N REF0 !
   PARAMETER G(BCC_A2,CR,Y:VA;1)            298.15 -14000; 6000 N REF0 !





 TYPE_DEFINITION ( GES A_P_D CR2O3 MAGNETIC  -3.0    2.80000E-01 !
 PHASE CR2O3  %(  3 2   1   3 !
    CONSTITUENT CR2O3  :CR+2,CR+3 : CR+3,VA : O-2 :  !

   PARAMETER TC(CR2O3,CR+2:CR+3:O-2;0)    298.15 +308.6; 6000 N REF0 !
   PARAMETER BMAGN(CR2O3,CR+2:CR+3:O-2;0) 298.15 +3; 6000 N REF0 !
   PARAMETER G(CR2O3,CR+2:CR+3:O-2;0)     298.15 +GCRO0#+.333333333*GHSERCR#
  -5.2923*T; 6000 N REF0 !
   PARAMETER TC(CR2O3,CR+3:CR+3:O-2;0)    298.15 +308.6; 6000 N REF0 !
   PARAMETER BMAGN(CR2O3,CR+3:CR+3:O-2;0) 298.15 +3; 6000 N REF0 !
   PARAMETER G(CR2O3,CR+3:CR+3:O-2;0)     298.15 +GCR2O3#+GHSERCR#; 6000 N 
  REF0 !
   PARAMETER TC(CR2O3,CR+2:VA:O-2;0)      298.15 +308.6; 6000 N REF0 !
   PARAMETER BMAGN(CR2O3,CR+2:VA:O-2;0)   298.15 +3; 6000 N REF0 !
   PARAMETER G(CR2O3,CR+2:VA:O-2;0)       298.15 +GCRO0#-.666666667*GHSERCR#
  -5.2923*T; 6000 N REF0 !
   PARAMETER TC(CR2O3,CR+3:VA:O-2;0)      298.15 +308.6; 6000 N REF0 !
   PARAMETER BMAGN(CR2O3,CR+3:VA:O-2;0)   298.15 +3; 6000 N REF0 !
   PARAMETER G(CR2O3,CR+3:VA:O-2;0)       298.15 +GCR2O3#; 6000 N REF0 !


 PHASE CR3O4  %  3 1   2   4 !
    CONSTITUENT CR3O4  :CR+2 : CR+3 : O-2 :  !

   PARAMETER G(CR3O4,CR+2:CR+3:O-2;0)     298.15 +GCR3O4#; 6000 N REF0 !


 TYPE_DEFINITION ) GES A_P_D HCP_A3 MAGNETIC  -3.0    2.80000E-01 !
 PHASE HCP_A3  %)  2 1   .5 !
    CONSTITUENT HCP_A3  :CR,Y : O,VA :  !


   PARAMETER G(HCP_A3,CR:O;0)             298.15 +GHSERCR#+4438+.5*GHSEROO#; 
  6000 N REF0 !
   PARAMETER G(HCP_A3,Y:O;0)              298.15 +GHSERYY#+.5*GHSEROO#
  -303600+37.5*T; 6000 N REF0 !
   PARAMETER TC(HCP_A3,CR:VA;0)           298.15 -1109; 6000 N REF0 !
   PARAMETER BMAGN(HCP_A3,CR:VA;0)        298.15 -2.46; 6000 N REF0 !
   PARAMETER G(HCP_A3,CR:VA;0)            298.15 +GHSERCR#+4438; 6000 N REF0 !
   PARAMETER G(HCP_A3,Y:VA;0)             298.15 +GHSERYY#; 6000 N REF0 !
   PARAMETER G(HCP_A3,Y:O,VA;0)           298.15 +3500; 6000 N REF0 !
   PARAMETER G(HCP_A3,CR:VA;0)            298.15 +GHSERCR#+4438; 6000 N REF2 !
   PARAMETER TC(HCP_A3,CR:VA;0)           298.15 -1109; 6000 N REF2 !
   PARAMETER BMAGN(HCP_A3,CR:VA;0)        298.15 -2.46; 6000 N REF2 !
   PARAMETER G(HCP_A3,Y:VA;0)             100 +GHSERYY#; 3700 N REF2 !
   PARAMETER G(HCP_A3,CR,Y:VA;0)           298.15 63000; 6000 N REF0 !



 PHASE O2GAS  %  1  1.0  !
    CONSTITUENT O2GAS  :O2 :  !

   PARAMETER G(O2GAS,O2;0)                298.15 +2*GHSEROO#+RTLNP#; 6000 N 
  REF0 !


 PHASE Y2O3_C  %  3 2   3   1 !
    CONSTITUENT Y2O3_C  :Y,Y+3 : O-2,VA : O-2,VA :  !

   PARAMETER G(Y2O3_C,Y:O-2:O-2;0)        298.15 +2*GHSERYY#+4*GHSEROO#
  +345600+15.87691*T; 6000 N REF0 !
   PARAMETER G(Y2O3_C,Y+3:O-2:O-2;0)      298.15 +2*GCCYO15#+GHSEROO#+100000
  +15.87691*T; 6000 N REF0 !
   PARAMETER G(Y2O3_C,Y:VA:O-2;0)         298.15 +2*GHSERYY#+GHSEROO#+345600
  +15.87691*T; 6000 N REF0 !
   PARAMETER G(Y2O3_C,Y+3:VA:O-2;0)       298.15 +2*GCCYO15#-2*GHSEROO#
  +100000+15.87691*T; 6000 N REF0 !
   PARAMETER G(Y2O3_C,Y:O-2:VA;0)         298.15 +2*GHSERYY#+3*GHSEROO#
  +245600; 6000 N REF0 !
   PARAMETER G(Y2O3_C,Y+3:O-2:VA;0)       298.15 +2*GCCYO15#; 6000 N REF0 !
   PARAMETER G(Y2O3_C,Y:VA:VA;0)          298.15 +2*GHSERYY#+245600; 6000 N 
  REF0 !
   PARAMETER G(Y2O3_C,Y+3:VA:VA;0)        298.15 +2*GCCYO15#-3*GHSEROO#; 
  6000 N REF0 !


 PHASE Y2O3_H  %  2 1   2 !
    CONSTITUENT Y2O3_H  :Y,Y+3 : O-2,VA :  !

   PARAMETER G(Y2O3_H,Y:O-2;0)            298.15 +GHSERYY#+2*GHSEROO#+122800;
   6000 N REF0 !
   PARAMETER G(Y2O3_H,Y+3:O-2;0)          298.15 +GHHYO15#+.5*GHSEROO#
  +9.3511*T; 6000 N REF0 !
   PARAMETER G(Y2O3_H,Y:VA;0)             298.15 +GHSERYY#+122800; 6000 N 
  REF0 !
   PARAMETER G(Y2O3_H,Y+3:VA;0)           298.15 +GHHYO15#-1.5*GHSEROO#
  +9.3511*T; 6000 N REF0 !


 PHASE YCRO3  %  3 1   1   3 !
    CONSTITUENT YCRO3  :Y+3 : CR+3 : O-2 :  !

   PARAMETER G(YCRO3,Y+3:CR+3:O-2;0)      298.15 +GYCRO3#; 6000 N REF0 !

 LIST_OF_REFERENCES
 NUMBER  SOURCE
  ! 
 
