
$ Database file written 2014- 2-14
$ From database: SSUB4                   
 ELEMENT /-   ELECTRON_GAS              0.0000E+00  0.0000E+00  0.0000E+00!
 ELEMENT VA   VACUUM                    0.0000E+00  0.0000E+00  0.0000E+00!
 ELEMENT FE   BCC_A2                    5.5847E+01  4.4890E+03  2.7280E+01!
 ELEMENT MN   CBCC_A12                  5.4938E+01  4.9960E+03  3.2008E+01!
 ELEMENT S    ORTHORHOMBIC_S            3.2066E+01  0.0000E+00  0.0000E+00!
 ELEMENT CA   FCC_A1                    4.0078E+01  6.1965E+03  4.1589E+01!
 ELEMENT MG   HCP_A3                    2.4305E+01  4.9980E+03  3.2671E+01!
 
 SPECIES FE+2                        FE1/+2!
 SPECIES MN+2                        MN1/+2!
 SPECIES S-2                         S1/-2!
 SPECIES S2                          S2!
 SPECIES S3                          S3!
 SPECIES S4                          S4!
 SPECIES S5                          S5!
 SPECIES S6                          S6!
 SPECIES S7                          S7!
 SPECIES S8                          S8!
 SPECIES CA+2                        CA1/+2!
 SPECIES CA1S1                       CA1S1!
 SPECIES FE1S1                       FE1S1!
 SPECIES FE1S2                       FE1S2!
 SPECIES MG+2                        MG1/+2!
 SPECIES MG1S1                       MG1S1!
 
 FUNCTION GLIQSS     2.98150E+02  -4001.549+77.889686*T-15.504*T*LN(T)
     -.018629*T**2-2.4942E-07*T**3-113945*T**(-1);  3.88360E+02  Y
      -5285183.35+118449.585*T-19762.4*T*LN(T)+32.79275*T**2
     -.0102214167*T**3+2.646735E+08*T**(-1);  4.28150E+02  Y
      -8174995.23+319914.078*T-57607.3*T*LN(T)+135.3045*T**2
     -.0529973333*T**3;  4.32250E+02  Y
      -219408.801+7758.83993*T-1371.85*T*LN(T)+2.845035*T**2
     -.00101380333*T**3;  4.53150E+02  Y
      +92539.872-1336.36627*T+202.958*T*LN(T)-.2531915*T**2+5.18835E-05*T**3
     -8202200*T**(-1);  7.17000E+02  Y
      -6889.972+176.35482*T-32*T*LN(T);  1.30000E+03  N !
 FUNCTION GMGS       2.98150E+02  -366580+262.4*T-47*T*LN(T)
 -.00497*T**2+145000*T**(-1); 6.00000E+03   N !
 FUNCTION GLIQMG     2.98150E+02  +GHSERMG#+8202.243-8.83693*T
     -8.0176E-20*T**7;  9.23000E+02  Y
      -5439.869+195.324057*T-34.3088*T*LN(T);  3.00000E+03  N !
 FUNCTION FFF7       2.98150E+02  8140;   6.00000E+03   N !
 FUNCTION FFF8       2.98150E+02  4900;   6.00000E+03   N !
 FUNCTION GBCCMG     2.98150E+02  +GHSERMG#+3100-2.1*T;  3.00000E+03  N !
 FUNCTION GFCCMG     2.98150E+02  +GHSERMG#+2600-.9*T;  3.00000E+03  N !
 FUNCTION GHSERMG    2.98150E+02  -8367.34+143.675547*T-26.1849782*T*LN(T)
     +4.858E-04*T**2-1.393669E-06*T**3+78950*T**(-1);  9.23000E+02  Y
      -14130.185+204.716215*T-34.3088*T*LN(T)+1.038192E+28*T**(-9);  
     3.00000E+03  N !
 FUNCTION GBCCCA     2.98150E+02  -7020.852+142.970155*T-28.2541*T*LN(T)
     +.0072326*T**2-4.500217E-06*T**3+60578*T**(-1);  7.16000E+02  Y
      +1640.475+1.999694*T-6.276*T*LN(T)-.0161921*T**2-523000*T**(-1);  
     1.11500E+03  Y
      -142331.096+1023.54905*T-143.872698*T*LN(T)+.032543127*T**2
     -1.704079E-06*T**3+25353771*T**(-1);  3.00000E+03  Y
      +321.63+189.433057*T-35*T*LN(T);  3.00100E+03  N !
 FUNCTION GCAS       2.98150E+02 +GHSERSS#+GHSERCA#
   -4.85598861E+05 + 2.12022773E+01*T;   6.00000E+03   N !
 FUNCTION GLIQCA     2.98150E+02  +5844.846+62.4838*T-16.3138*T*LN(T)
     -.01110455*T**2-133574*T**(-1);  5.00000E+02  Y
      +7838.856+18.2979*T-8.9874787*T*LN(T)-.02266537*T**2+3.338303E-06*T**3
     -230193*T**(-1);  1.11500E+03  Y
      -2654.938+188.9223*T-35*T*LN(T);  3.00100E+03  N !
 FUNCTION GHSERCA    2.98150E+02  -4955.062+72.794266*T-16.3138*T*LN(T)
     -.01110455*T**2-133574*T**(-1);  1.11500E+03  Y
      -107304.428+799.982066*T-114.292247*T*LN(T)+.023733814*T**2
     -1.2438E-06*T**3+18245540*T**(-1);  3.00000E+03  Y
      -3703.12+192.63995*T-35*T*LN(T);  3.00100E+03  N !
 FUNCTION GHCPCA     2.98150E+02  +GHSERCA#+500+.7*T;  3.00100E+03  N !
 FUNCTION GFELIQ     2.98150E+02  +GHSERFE#+12040.17-6.55843*T
     -3.67516E-21*T**7;  1.81100E+03  Y
      -10838.83+291.302*T-46*T*LN(T);  6.00000E+03  N !
 FUNCTION GSSLIQ     2.98150E+02  -4001.549+77.889686*T-15.504*T*LN(T)
     -.018629*T**2-2.4942E-07*T**3-113945*T**(-1);  3.88360E+02  Y
      -5285183.35+118449.585*T-19762.4*T*LN(T)+32.79275*T**2
     -.0102214167*T**3+2.646735E+08*T**(-1);  4.28150E+02  Y
      -8174995.23+319914.078*T-57607.3*T*LN(T)+135.3045*T**2
     -.0529973333*T**3;  4.32250E+02  Y
      -219408.801+7758.83993*T-1371.85*T*LN(T)+2.845035*T**2
     -.00101380333*T**3;  4.53150E+02  Y
      +92539.872-1336.36627*T+202.958*T*LN(T)-.2531915*T**2+5.18835E-05*T**3
     -8202200*T**(-1);  7.17000E+02  Y
      -6889.972+176.35482*T-32*T*LN(T);  1.30000E+03  N !
 FUNCTION GHSERSS    2.98150E+02  -5228.956+55.401762*T-11.007*T*LN(T)
     -.026529*T**2+7.754333E-06*T**3;  3.68300E+02  Y
      -6513.769+94.676922*T-17.941839*T*LN(T)-.010895125*T**2
     +1.402558E-06*T**3+39910*T**(-1);  1.30000E+03  N !
 FUNCTION GHSERMN    2.98150E+02  -8115.28+130.059*T-23.4582*T*LN(T)
     -.00734768*T**2+69827*T**(-1);  1.51900E+03  Y
      -28733.41+312.2648*T-48*T*LN(T)+1.656847E+30*T**(-9);  2.00000E+03  N !
 FUNCTION GLIQMN     2.98150E+02  +17859.91-12.6208*T+GHSERMN#
     -4.41929E-21*T**7;  1.51900E+03  Y
      -9993.9+299.036*T-48*T*LN(T);  2.00000E+03  N !
 FUNCTION GHSERFE    2.98150E+02  +1225.7+124.134*T-23.5143*T*LN(T)
     -.00439752*T**2-5.8927E-08*T**3+77359*T**(-1);  1.81100E+03  Y
      -25383.581+299.31255*T-46*T*LN(T)+2.29603E+31*T**(-9);  6.00000E+03  N 
     !
 FUNCTION GBCCMN     2.98150E+02  -3235.3+127.85*T-23.7*T*LN(T)
     -.00744271*T**2+60000*T**(-1);  1.51900E+03  Y
      +5544.58-4.5605*T+GHSERMN#-3.91695E+29*T**(-9);  2.00000E+03  N !
 FUNCTION GBCCSS     2.98150E+02  +GHSERSS#+105000;  1.30100E+03  N !
 FUNCTION GCUBMN     2.98150E+02  -5800.4+135.995*T-24.8785*T*LN(T)
     -.00583359*T**2+70269*T**(-1);  1.51900E+03  Y
      +442.65-.9715*T+GHSERMN#+2.310723E+30*T**(-9);  2.00000E+03  N !
 FUNCTION GFCCFE     2.98150E+02  -236.7+132.416*T-24.6643*T*LN(T)
     -.00375752*T**2-5.8927E-08*T**3+77359*T**(-1);  1.81100E+03  Y
      -27097.3963+300.252559*T-46*T*LN(T)+2.78854E+31*T**(-9);  6.00000E+03  
     N !
 FUNCTION GFCCMN     2.98150E+02  -3439.3+131.884*T-24.5177*T*LN(T)
     -.006*T**2+69600*T**(-1);  1.51900E+03  Y
      +2663.31-2.5984*T+GHSERMN#+2.205113E+30*T**(-9);  2.00000E+03  N !
 FUNCTION GFCCSS     2.98150E+02  +GHSERSS#+105000;  1.30100E+03  N !
 FUNCTION F15177T    2.98150E+02  +269797.373+2.28102912*T-25.70471*T*LN(T)
     +.003751372*T**2-5.48887167E-07*T**3+3450.3165*T**(-1);  1.00000E+03  Y
      +273925.002-38.4958657*T-19.81748*T*LN(T)-2.300353E-04*T**2
     -1.18709967E-08*T**3-570436.5*T**(-1);  3.40000E+03  Y
      +257401.532-.943967214*T-24.05931*T*LN(T)-5.98546E-07*T**2
     +2.02961167E-09*T**3+9368165*T**(-1);  1.00000E+04  N !
 FUNCTION F15281T    2.98150E+02  +117374.548+2.98629558*T-34.09678*T*LN(T)
     -.002325464*T**2+1.85480167E-07*T**3+128593.6*T**(-1);  1.00000E+03  Y
      +117352.438+2.50383258*T-34.04744*T*LN(T)-.0021150245*T**2
     +9.16602333E-08*T**3+175718.45*T**(-1);  3.40000E+03  Y
      +124361.091+14.5182895*T-36.1923*T*LN(T)-5.930925E-04*T**2
     -7.54259333E-09*T**3-7484105*T**(-1);  6.00000E+03  N !
 FUNCTION F15337T    2.98150E+02  +126744.316+83.8435679*T-52.94561*T*LN(T)
     -.0043385055*T**2+6.68300333E-07*T**3+276938.3*T**(-1);  1.00000E+03  Y
      +123958.871+118.720435*T-58.16242*T*LN(T)-7.29079E-06*T**2
     +2.42566833E-10*T**3+558805*T**(-1);  6.00000E+03  N !
 FUNCTION F15351T    2.98150E+02  +109847.439+203.904962*T-72.67966*T*LN(T)
     -.009041155*T**2+1.47148883E-06*T**3+505278*T**(-1);  9.00000E+02  Y
      +104526.08+272.793561*T-83.05028*T*LN(T)-1.828101E-05*T**2
     +6.19803333E-10*T**3+1023588.5*T**(-1);  6.00000E+03  N !
 FUNCTION F15357T    2.98150E+02  +106276.073+170.263397*T-74.99022*T*LN(T)
     -.035336475*T**2+5.76872833E-06*T**3+227070.6*T**(-1);  9.00000E+02  Y
      +75139.8853+544.891052*T-130.537*T*LN(T)+.007879015*T**2
     -4.32610333E-07*T**3+3425257*T**(-1);  2.80000E+03  Y
      +114904.754+339.945758*T-103.9801*T*LN(T)+2.25877E-05*T**2
     -7.925025E-10*T**3-7832715*T**(-1);  6.00000E+03  N !
 FUNCTION F15362T    2.98150E+02  +57214.7955+523.240738*T-130.1838*T*LN(T)
     -4.152356E-04*T**2-4.27131667E-07*T**3+779118.5*T**(-1);  1.60000E+03  Y
      +8925.72404+728.509035*T-155.3363*T*LN(T)+.002031178*T**2
     -1.776135E-08*T**3+14908280*T**(-1);  4.20000E+03  Y
      +43158.7845+657.511851*T-147.3935*T*LN(T)+.0015928905*T**2
     -3.34608333E-08*T**3-8046775*T**(-1);  6.00000E+03  N !
 FUNCTION F15367T    2.98150E+02  +59623.0035+634.182526*T-153.2939*T*LN(T)
     -.003102847*T**2+3.66153167E-07*T**3+940068*T**(-1);  1.50000E+03  Y
      +56671.3253+666.288103*T-157.9591*T*LN(T)-2.441417E-06*T**2
     +7.28532E-11*T**3+1284129.5*T**(-1);  6.00000E+03  N !
 FUNCTION F15371T    2.98150E+02  +45619.0286+695.99667*T-166.1987*T*LN(T)
     -.0109886*T**2-1.38875683E-06*T**3+753634*T**(-1);  8.00000E+02  Y
      +22301.5849+822.418117*T-181.0091*T*LN(T)-.020252625*T**2
     +3.04543E-06*T**3+4785936*T**(-1);  1.50000E+03  Y
      +28125.3362+992.470204*T-208.7199*T*LN(T)+.006139635*T**2
     -2.57977667E-07*T**3-2943090*T**(-1);  3.90000E+03  Y
      +82396.4106+766.112127*T-180.3439*T*LN(T)-2.580219E-04*T**2
     +5.17172833E-09*T**3-21845450*T**(-1);  6.00000E+03  N !
 FUNCTION GFES       2.98150E+02  -107518-18.19*T+1.78*T*LN(T);   
     6.00000E+03   N !
 FUNCTION GLIQFES    2.98150E+02  -104225-1.479*T;   6.00000E+03   N !    
 FUNCTION GMNS       2.98150E+02  -230200+239*T
     -47.28*T*LN(T)-0.00444*T**2;   6.00000E+03   N !    
 
 TYPE_DEFINITION % SEQ *!
 DEFINE_SYSTEM_DEFAULT ELEMENT 2 !
 DEFAULT_COMMAND DEF_SYS_ELEMENT VA /- !


 PHASE GAS:G %  1  1.0  !
    CONSTITUENT GAS:G  :S,S2,S3,S4,S5,S6,S7,S8 :  !

   PARAMETER G(GAS,S;0)  2.98150E+02  +F15177T#+R#*T*LN(1E-05*P);   
  6.00000E+03   N REF4 !
   PARAMETER G(GAS,S2;0)  2.98150E+02  +F15281T#+R#*T*LN(1E-05*P);   
  6.00000E+03   N REF4 !
   PARAMETER G(GAS,S3;0)  2.98150E+02  +F15337T#+R#*T*LN(1E-05*P);   
  6.00000E+03   N REF4 !
   PARAMETER G(GAS,S4;0)  2.98150E+02  +F15351T#+R#*T*LN(1E-05*P);   
  6.00000E+03   N REF4 !
   PARAMETER G(GAS,S5;0)  2.98150E+02  +F15357T#+R#*T*LN(1E-05*P);   
  6.00000E+03   N REF4 !
   PARAMETER G(GAS,S6;0)  2.98150E+02  +F15362T#+R#*T*LN(1E-05*P);   
  6.00000E+03   N REF4 !
   PARAMETER G(GAS,S7;0)  2.98150E+02  +F15367T#+R#*T*LN(1E-05*P);   
  6.00000E+03   N REF4 !
   PARAMETER G(GAS,S8;0)  2.98150E+02  +F15371T#+R#*T*LN(1E-05*P);   
  6.00000E+03   N REF4 !


 PHASE IONIC_LIQ:Y %  2 6   4 !
    CONSTITUENT IONIC_LIQ:Y  :FE+2,MN+2,CA+2,MG+2 : S-2,VA,S :  !
   PARAMETER G(IONIC_LIQ,FE+2:S-2;0)  2.98150E+02  +2*GLIQFES#+2*GFELIQ#
  +2*GSSLIQ#;  2.00000E+03  N REF2 !
   PARAMETER G(IONIC_LIQ,MN+2:S-2;0)  2.98150E+02  
  +2*GMNS#+52220-27.88*T;   6.00000E+03   N REF5 !
   PARAMETER G(IONIC_LIQ,CA+2:S-2;0)  2.98150E+02  +2*GLIQCA#+2*GLIQSS
   -826244+97.30360*T; 6.00000E+03   N REF10 !
   PARAMETER G(IONIC_LIQ,MG+2:S-2;0)  2.98150E+02  +2*GLIQMG+2*GLIQSS
   -621120+94.71262*T; 6.00000E+03   N REF10 !
   PARAMETER G(IONIC_LIQ,CA+2:VA;0)  2.98150E+02  +GLIQCA#;  2.00000E+03  N 
  REF8 !
   PARAMETER G(IONIC_LIQ,FE+2:VA;0)  2.98150E+02  +GFELIQ#;   6.00000E+03   
  N REF1 !
   PARAMETER G(IONIC_LIQ,MG+2:VA;0)  2.98150E+02  +GLIQMG#;   6.00000E+03   
  N REF1 !
   PARAMETER G(IONIC_LIQ,MN+2:VA;0)  2.98150E+02  +GLIQMN#;   6.00000E+03   
  N REF1 !
   PARAMETER G(IONIC_LIQ,S;0)  2.98150E+02  +GSSLIQ#;  2.00000E+03  N REF1 !
   PARAMETER G(IONIC_LIQ,FE+2,MN+2:S-2;0)  2.98150E+02  20000;  
  2.00000E+03  N REF5 !
   PARAMETER G(IONIC_LIQ,CA+2,FE+2:S-2;0)  2.98150E+02  -55000;  2.00000E+03 
   N REF10 !
   PARAMETER G(IONIC_LIQ,FE+2,MG+2:S-2;0)  2.98150E+02  +18000;  
  2.00000E+03  N REF10 !
   PARAMETER G(IONIC_LIQ,MG+2:S-2,VA;0)  2.98150E+02  +182000+26.8*T;  
  2.00000E+03  N REF10 !
   PARAMETER G(IONIC_LIQ,FE+2,MG+2:VA;0)  2.98150E+02  +61343+1.5*T;  
  2.00000E+03  N REF9 !
   PARAMETER G(IONIC_LIQ,FE+2,MG+2:VA;1)  2.98150E+02  -2700;  2.00000E+03  
  N REF9 !
   PARAMETER G(IONIC_LIQ,CA+2:S-2,VA;0)  2.98150E+02  17331;  2.00000E+03  N 
  REF10 !
   PARAMETER G(IONIC_LIQ,CA+2,FE+2:VA;0)  2.98150E+02  120705;   6.00000E+03 
    N REF6 !
   PARAMETER G(IONIC_LIQ,CA+2,MG+2:VA;0)  2.98150E+02  -21800;   6.00000E+03
   N REF11 !
  PARAMETER G(IONIC_LIQ,CA+2,MG+2:VA;1)  2.98150E+02  4540;   6.00000E+03
 N REF11 !
  PARAMETER G(IONIC_LIQ,CA+2,MG+2:VA;2)  2.98150E+02  -4700;   6.00000E+03
  N REF11 !
   PARAMETER G(IONIC_LIQ,MG+2,MN+2:VA;0)  2.98150E+02  +19125+12.5*T;
6.00000E+03   N REF12 !
   PARAMETER G(IONIC_LIQ,FE+2,MN+2:S-2,VA;0)  2.98150E+02  -1e5;  
  2.00000E+03  N REF5 !
   PARAMETER G(IONIC_LIQ,FE+2,MN+2:S-2,VA;1)  2.98150E+02  -1e5;  
  2.00000E+03  N REF5 !
   PARAMETER G(IONIC_LIQ,FE+2,MN+2:S-2,VA;2)  2.98150E+02  +1e5;  
  2.00000E+03  N REF5 !
   PARAMETER G(IONIC_LIQ,FE+2,MN+2:S-2,S;0)  2.98150E+02  300000;  
  2.00000E+03  N REF5 !
   PARAMETER G(IONIC_LIQ,FE+2:S-2,VA;0)  2.98150E+02  +103758-46.3734*T;  
  2.00000E+03  N REF2 !
   PARAMETER G(IONIC_LIQ,FE+2:S-2,VA;1)  2.98150E+02  -27530;  2.00000E+03  
  N REF2 !
   PARAMETER G(IONIC_LIQ,FE+2:S-2,S;0)  2.98150E+02  +96626-43.614*T;  
  2.00000E+03  N REF2 !
   PARAMETER G(IONIC_LIQ,FE+2:S-2,S;1)  2.98150E+02  -145966+49.429*T;  
  2.00000E+03  N REF2 !
   PARAMETER G(IONIC_LIQ,MN+2:S-2,VA;0)  2.98150E+02  137000;  
  2.00000E+03  N REF5 !
   PARAMETER G(IONIC_LIQ,MN+2:S-2,VA;1)  2.98150E+02  -11400;  
  2.00000E+03  N REF5 !
   PARAMETER G(IONIC_LIQ,MN+2:S-2,S;0)  2.98150E+02  +96626-43.614*T;  
  2.00000E+03  N REF5 !
   PARAMETER G(IONIC_LIQ,MN+2:S-2,S;1)  2.98150E+02  -145966+49.429*T;  
  2.00000E+03  N REF5 !
   PARAMETER G(IONIC_LIQ,FE+2,MN+2:VA;0)  2.98150E+02  -3950+.489*T;   
  6.00000E+03   N REF3 !
   PARAMETER G(IONIC_LIQ,FE+2,MN+2:VA;1)  2.98150E+02  1145;   6.00000E+03   
  N REF3 !
   PARAMETER G(IONIC_LIQ,CA+2,MN+2:S-2;0)  2.98150E+02  -65000;   
  6.00000E+03   N REF0 !
   PARAMETER G(IONIC_LIQ,CA+2,MN+2:S-2;1)  2.98150E+02  -40000;   6.00000E+03   
  N REF0 !
     PARAMETER G(IONIC_LIQ,CA+2,MG+2:S-2;0)  2.98150E+02  9176.7;   
  6.00000E+03   N REF0 !
   PARAMETER G(IONIC_LIQ,CA+2,MG+2:S-2;1)  2.98150E+02  -40033.5;   6.00000E+03   
  N REF0 !
   PARAMETER G(IONIC_LIQ,CA+2:S-2,S;0)  2.98150E+02  100000;  6.00000E+03  N 
  REF10 !
  PARAMETER G(IONIC_LIQ,MG+2:S-2,S;0)  2.98150E+02  100000;   6.00000E+03   
  N REF10 !
  PARAMETER G(IONIC_LIQ,CA+2,MN+2:VA;0)  2.98150E+02  47000;   6.00000E+03   
  N REF0 !

 PHASE ALABANDITE  %  2 1   1 !
    CONSTITUENT ALABANDITE  :FE,MN,CA,MG : S :  !

   PARAMETER G(ALABANDITE,FE:S;0)  2.98150E+02  +5380+GFES#+GHSERFE#
  +GHSERSS#-2.37*T;   6.00000E+03   N REF5 !
   PARAMETER G(ALABANDITE,MN:S;0)  2.98150E+02  +GMNS#;  
  2.00000E+03  N REF5 !
   PARAMETER G(ALABANDITE,CA:S;0)  2.98150E+02  +GHSERSS#+GHSERCA#
   -476000 + 57.22*T;  2.00000E+03  N REF10 !
   PARAMETER G(ALABANDITE,MG:S;0)  2.98150E+02  +GHSERSS +GHSERMG
   -351456 + 50.25*T;   6.00000E+03   N REF10 !
   PARAMETER G(ALABANDITE,FE,MG:S;0)  2.98150E+02  +8140;   6.00000E+03   N 
  REF0 !
   PARAMETER G(ALABANDITE,FE,MG:S;1)  2.98150E+02  +4900;   6.00000E+03   N 
  REF0 !
   PARAMETER G(ALABANDITE,CA,FE:S;0)  2.98150E+02  46000;   6.00000E+03 
    N REF0 !
   PARAMETER L(ALABANDITE,FE,MN:S;0)  2.98150E+02  +3800;  
  2.00000E+03  N REF5 !
   PARAMETER L(ALABANDITE,MG,MN:S;0)  2.98150E+02  +3800;  
  2.00000E+03  N REF0 ! 
   PARAMETER L(ALABANDITE,CA,MN:S;0)  2.98150E+02  +33480-7.24*T; 
    6.00000E+03   N REF0 !
   PARAMETER L(ALABANDITE,CA,MN:S;1)  2.98150E+02  +3230;   6.00000E+03 
    N REF0 !
   PARAMETER L(ALABANDITE,CA,MG:S;0)  2.98150E+02  +47300-18.4*T;   6.00000E+03 
    N REF0 !
   PARAMETER L(ALABANDITE,CA,MG:S;1)  2.98150E+02  -1300;   6.00000E+03 
    N REF0 !
   PARAMETER L(ALABANDITE,CA,FE,MN:S;0)  2.98150E+02  -20000;  6.00000E+03
    N REF0 !
   PARAMETER L(ALABANDITE,CA,FE,MG:S;0)  2.98150E+02  -20000;  6.00000E+03
    N REF0 !
    
 TYPE_DEFINITION & GES A_P_D BCC_A2 MAGNETIC  -1.0    0.4 !
 PHASE BCC_A2  %&  2 1   3 !
    CONSTITUENT BCC_A2  :FE,MN,S,CA,MG : VA :  !

   PARAMETER G(BCC_A2,FE:VA;0)  2.98150E+02  +GHSERFE#;   6.00000E+03   N 
  REF1 !
   PARAMETER TC(BCC_A2,FE:VA;0)  2.98150E+02  1043;   6.00000E+03   N REF1 !
   PARAMETER BMAGN(BCC_A2,FE:VA;0)  2.98150E+02  2.22;   6.00000E+03   N 
  REF1 !
   PARAMETER G(BCC_A2,MN:VA;0)  2.98150E+02  +GBCCMN#;  2.00000E+03  N REF1 !
   PARAMETER TC(BCC_A2,MN:VA;0)  2.98150E+02  -580;  2.00000E+03  N REF1 !
   PARAMETER BMAGN(BCC_A2,MN:VA;0)  2.98150E+02  -.27;  2.00000E+03  N REF1 !
   PARAMETER G(BCC_A2,S:VA;0)  2.98150E+02  +GBCCSS#;  1.30100E+03  N REF1 !
   PARAMETER G(BCC_A2,CA:VA;0)  2.98150E+02  +GBCCCA#;  3.00100E+03  N REF8 !
   PARAMETER G(BCC_A2,MG:VA;0)  2.98150E+02  +GBCCMG#;  3.00000E+03  N REF1 !
   PARAMETER G(BCC_A2,FE,MG:VA;0)  2.98150E+02  65700;  2.00000E+03  N REF9 !
   PARAMETER G(BCC_A2,CA,FE:VA;0)  2.98150E+02  120705;  3.00000E+03  N REF7 !
   PARAMETER G(BCC_A2,FE,MN:VA;0)  2.98150E+02  -2759+1.237*T;   6.00000E+03 
    N REF3 !
   PARAMETER TC(BCC_A2,FE,MN:VA;0)  2.98150E+02  123;   6.00000E+03   N REF3 !
   PARAMETER G(BCC_A2,FE,S:VA;0)  2.98150E+02  -119675-18.7201*T;  
  2.00000E+03  N REF2 !
   PARAMETER G(BCC_A2,CA,MG:VA;0)  2.98150E+02  +80*T;   6.00000E+03   N
   REF11 !
   PARAMETER G(BCC_A2,MG,MN:VA;0)  2.98150E+02  70000;   6.00000E+03   N
   REF12 !
    PARAMETER G(BCC_A2,CA,MN:VA;0)  2.98150E+02  60000;   6.00000E+03   N
   REF0 !
 
 TYPE_DEFINITION ' GES A_P_D CBCC_A12 MAGNETIC  -3.0    0.28 !
 PHASE CBCC_A12  %'  2 1   1 !
    CONSTITUENT CBCC_A12  :FE,MN : VA :  !

   PARAMETER G(CBCC_A12,FE:VA;0)  2.98150E+02  +5970.7+124.134*T
  -23.5143*T*LN(T)-.00439752*T**2-5.8927E-08*T**3+77359*T**(-1);  
  1.81100E+03  Y
   -20638.581+299.31255*T-46*T*LN(T)+2.296031E+31*T**(-9);  6.00000E+03  N 
  REF1 !
   PARAMETER G(CBCC_A12,MN:VA;0)  2.98150E+02  +GHSERMN#;  2.00000E+03  N 
  REF1 !
   PARAMETER TC(CBCC_A12,MN:VA;0)  2.98150E+02  -285;  2.00000E+03  N REF1 !
   PARAMETER BMAGN(CBCC_A12,MN:VA;0)  2.98150E+02  -.66;  2.00000E+03  N 
  REF1 !
   PARAMETER G(CBCC_A12,FE,MN:VA;0)  2.98150E+02  -10184;   6.00000E+03   N 
  REF3 !


 PHASE CUB_A13  %  2 1   1 !
    CONSTITUENT CUB_A13  :FE,MN : VA :  !

   PARAMETER G(CUB_A13,FE:VA;0)  2.98150E+02  +4970.7+124.134*T
  -23.5143*T*LN(T)-.00439752*T**2-5.8927E-08*T**3+77359*T**(-1);  
  1.81100E+03  Y
   -21638.581+299.31255*T-46*T*LN(T)+2.296031E+31*T**(-9);  6.00000E+03  N 
  REF1 !
   PARAMETER G(CUB_A13,MN:VA;0)  2.98150E+02  +GCUBMN#;  2.00000E+03  N REF1 !
   PARAMETER G(CUB_A13,FE,MN:VA;0)  2.98150E+02  -11518+2.819*T;   
  6.00000E+03   N REF3 !


 TYPE_DEFINITION ( GES A_P_D FCC_A1 MAGNETIC  -3.0    0.28 !
 PHASE FCC_A1  %(  2 1   1 !
    CONSTITUENT FCC_A1  :FE,MN,S,CA,MG : VA :  !

   PARAMETER G(FCC_A1,FE:VA;0)  2.98150E+02  +GFCCFE#;   6.00000E+03   N 
  REF1 !
   PARAMETER TC(FCC_A1,FE:VA;0)  2.98150E+02  -201;   6.00000E+03   N REF1 !
   PARAMETER BMAGN(FCC_A1,FE:VA;0)  2.98150E+02  -2.1;   6.00000E+03   N 
  REF1 !
   PARAMETER G(FCC_A1,MN:VA;0)  2.98150E+02  +GFCCMN#;  2.00000E+03  N REF1 !
   PARAMETER TC(FCC_A1,MN:VA;0)  2.98150E+02  -1620;  2.00000E+03  N REF1 !
   PARAMETER BMAGN(FCC_A1,MN:VA;0)  2.98150E+02  -1.86;  2.00000E+03  N REF1 !
   PARAMETER G(FCC_A1,S:VA;0)  2.98150E+02  +GFCCSS#;  1.30100E+03  N REF1 !
   PARAMETER G(FCC_A1,CA:VA;0)  2.98150E+02  +GHSERCA#;  3.00100E+03  N REF1 !
   PARAMETER G(FCC_A1,MG:VA;0)  2.98150E+02  +GFCCMG#;  3.00000E+03  N REF1 !
   PARAMETER G(FCC_A1,FE,MG:VA;0)  2.98150E+02  65200;  2.00000E+03  N REF9 !
   PARAMETER G(FCC_A1,CA,FE:VA;0)  2.98150E+02  120705;  3.00000E+03  N REF7 !
   PARAMETER G(FCC_A1,FE,MN:VA;0)  2.98150E+02  -7762+3.865*T;   6.00000E+03 
    N REF3 !
   PARAMETER G(FCC_A1,FE,MN:VA;1)  2.98150E+02  -259;   6.00000E+03   N REF3 !
   PARAMETER TC(FCC_A1,FE,MN:VA;0)  2.98150E+02  -2282;   6.00000E+03   N 
  REF3 !
   PARAMETER TC(FCC_A1,FE,MN:VA;1)  2.98150E+02  -2068;   6.00000E+03   N 
  REF3 !
   PARAMETER G(FCC_A1,FE,S:VA;0)  2.98150E+02  -108733-18*T;  2.00000E+03  N 
  REF2 !
   PARAMETER G(FCC_A1,CA,MG:VA;0)  2.98150E+02  +80*T;   6.00000E+03   N
   REF11 !
   PARAMETER G(FCC_A1,MG,MN:VA;0)  2.98150E+02  70000;   6.00000E+03   N
  REF12 !
     PARAMETER G(FCC_A1,CA,MN:VA;0)  2.98150E+02  60000;   6.00000E+03   N
  REF0 !
  
 TYPE_DEFINITION ) GES A_P_D HCP_A3 MAGNETIC  -3.0    0.28 !
 PHASE HCP_A3  %)  2 1   .5 !
    CONSTITUENT HCP_A3  :FE,MN,CA : VA :  !

   PARAMETER G(HCP_A3,FE:VA;0)  2.98150E+02  +GHSERFE#-3705.78+12.591*T
  -1.15*T*LN(T)+6.4E-04*T**2;  1.81100E+03  Y
   -3957.199+5.24951*T+4.9251E+30*T**(-9)+GHSERFE#;  6.00000E+03  N REF1 !
   PARAMETER G(HCP_A3,MN:VA;0)  2.98150E+02  -4439.3+133.007*T
  -24.5177*T*LN(T)-.006*T**2+69600*T**(-1);  1.51900E+03  Y
   -27070.1+310.7894*T-48*T*LN(T)+3.86196E+30*T**(-9);  2.00000E+03  N REF1 !
   PARAMETER G(HCP_A3,CA:VA;0)  2.98150E+02  +GHCPCA#;  3.00100E+03  N REF8 !
   PARAMETER TC(HCP_A3,MN:VA;0)  2.98150E+02  -1620;  2.00000E+03  N REF1 !
   PARAMETER BMAGN(HCP_A3,MN:VA;0)  2.98150E+02  -1.86;  2.00000E+03  N REF1 !
   PARAMETER G(HCP_A3,FE,MN:VA;0)  2.98150E+02  -5582+3.865*T;   6.00000E+03 
    N REF3 !
   PARAMETER G(HCP_A3,FE,MN:VA;1)  2.98150E+02  273;   6.00000E+03   N REF3 !
   PARAMETER G(HCP_A3,CA,MG:VA;0)  2.98150E+02  10100;   6.00000E+03   N
   REF11 !
   PARAMETER G(HCP_A3,MG,MN:VA;0)  2.98150E+02  +32985+2.5*T;   6.00000E+03
   N REF12 !
    PARAMETER G(HCP_A3,CA,MN:VA;0)  2.98150E+02  60000;   6.00000E+03
   N REF0 !
   
 PHASE MONOCLINIC  %  1  1.0  !
    CONSTITUENT MONOCLINIC  :S :  !

   PARAMETER G(MONOCLINIC,S;0)  2.98150E+02  -5725.422+89.544275*T
  -17.413*T*LN(T)-.00993935*T**2-7.0062E-08*T**3+1250*T**(-1);  3.88360E+02  
  Y
   -7455.008+114.782945*T-21.1531404*T*LN(T)-.008566163*T**2
  +1.112484E-06*T**3+122167*T**(-1);  1.30000E+03  Y
   -11779.415+186.699065*T-32*T*LN(T);  1.30100E+03  N REF1 !


 PHASE ORTHORHOMBIC_S  %  1  1.0  !
    CONSTITUENT ORTHORHOMBIC_S  :S :  !

   PARAMETER G(ORTHORHOMBIC_S,S;0)  2.98150E+02  +GHSERSS#;  1.30100E+03  N 
  REF1 !


 PHASE PYRITE  %  2 1   2 !
    CONSTITUENT PYRITE  :FE,MN : S :  !

   PARAMETER G(PYRITE,FE:S;0)  2.98150E+02  +GHSERFE#+2*GHSERSS#-177763
  +48.567*T;   6.00000E+03   N REF2 !
   PARAMETER G(PYRITE,MN:S;0)  2.98150E+02  +2*GHSERSS#+GHSERMN#-224000
  -3.675*T;  2.00000E+03  N REF0 !
   PARAMETER L(PYRITE,FE,MN:S;0)  2.98150E+02  +15000;  2.00000E+03  N REF0 !


 PHASE PYRRHOTITE  %  2 1   1 !
    CONSTITUENT PYRRHOTITE  :FE,MN,VA : S :  !

   PARAMETER G(PYRRHOTITE,FE:S;0)  2.98150E+02  +GFES#+GHSERFE#+GHSERSS#;   
  6.00000E+03   N REF2 !
   PARAMETER G(PYRRHOTITE,MN:S;0)  2.98150E+02  +GMNS#  +17000;   
  6.00000E+03   N REF5 !
   PARAMETER G(PYRRHOTITE,VA:S;0)  2.98150E+02  +GHSERSS#+258600;   
  6.00000E+03   N REF2 !
   PARAMETER G(PYRRHOTITE,FE,VA:S;0)  2.98150E+02  -407000+10*T;   
  6.00000E+03   N REF2 !
   PARAMETER G(PYRRHOTITE,FE,VA:S;1)  2.98150E+02  +60000+20*T;   
  6.00000E+03   N REF2 !
   PARAMETER G(PYRRHOTITE,FE,MN:S;0)  2.98150E+02  0;   
  6.00000E+03   N REF0 !



 ASSESSED_SYSTEM
 
 !

 LIST_OF_REFERENCES
     NUMBER    SOURCE
   REF0     'Assessed parameter'
   REF1     'A. Dinsdale, SGTE Data for Pure Elements, Calphad, 15 (1991), 
   317-425'
   REF2     'B.-J. Lee, B. Sundman, S. Kim, and K.-W. Chin, ISIJ International, 
   47 (2007) p 163-171; Fe-Cu-S'
   REF3     'W. Huang, Calphad 13 (1989) 243-252; Fe-Mn'
   REF4  'TCS, SSUB5 - SGTE Substances Database V5.1, 2012.; Gas phase'
   REF1   'A. Dinsdale, SGTE Data for Pure Elements, Calphad, Vol. 15 (1991),
          pp. 317-425'
   REF5  'D. Dilner, H. Mao, M. Selleby Calphad 15 (2015) 95-105 ; Fe-Mn-S'
   REF6   'M Hillert, B Sundman and M Selleby, Metall Trans A, 21A (1990), 
         2759-2776; Ca-Fe-O'
   REF7   'M Selleby and B Sundman, Calphad 20 (1996), 381-392; Ca-Fe-O'
   REF8   'TCS (2004), TCMP2 - TCS Materials Processing Database, v2, 2004.'
   REF9     'J. Tibballs, COST 507 report (1998); Fe-Mg'
   REF10 'D. Dilner, L. Kjellqvist and M. Selleby, submitted to Journal of
          Phase Equilibria and Diffusion'
   REF11 'B. Hallstedt, J. Phase Equilib. 14 (1993) 662-675; Al-Ca-Mg-Si-O'
   REF12     'J. Tibballs, COST 507 report (1998); Mg-Mn'
 !
